p cnf 324 7560
-1 -2 0
-2 -3 0
-1 -3 0
3 2 1 0
-4 -5 0
-5 -6 0
-4 -6 0
6 5 4 0
-7 -8 0
-8 -9 0
-7 -9 0
9 8 7 0
-10 -11 0
-11 -12 0
-10 -12 0
12 11 10 0
-13 -14 0
-14 -15 0
-13 -15 0
15 14 13 0
-16 -17 0
-17 -18 0
-16 -18 0
18 17 16 0
-19 -20 0
-20 -21 0
-19 -21 0
21 20 19 0
-22 -23 0
-23 -24 0
-22 -24 0
24 23 22 0
-25 -26 0
-26 -27 0
-25 -27 0
27 26 25 0
-28 -29 0
-29 -30 0
-28 -30 0
30 29 28 0
-31 -3 -6 -30 0
-32 -2 -5 -29 0
-33 -1 -4 -28 0
-33 -32 0
-32 -31 0
-33 -31 0
31 32 33 0
-34 -3 -9 -30 0
-35 -2 -8 -29 0
-36 -1 -7 -28 0
-34 -6 -9 -31 0
-35 -5 -8 -32 0
-36 -4 -7 -33 0
-36 -35 0
-35 -34 0
-36 -34 0
34 35 36 0
-37 -3 -12 -30 0
-38 -2 -11 -29 0
-39 -1 -10 -28 0
-37 -6 -12 -31 0
-38 -5 -11 -32 0
-39 -4 -10 -33 0
-37 -9 -12 -34 0
-38 -8 -11 -35 0
-39 -7 -10 -36 0
-39 -38 0
-38 -37 0
-39 -37 0
37 38 39 0
-40 -3 -15 -30 0
-41 -2 -14 -29 0
-42 -1 -13 -28 0
-40 -6 -15 -31 0
-41 -5 -14 -32 0
-42 -4 -13 -33 0
-40 -9 -15 -34 0
-41 -8 -14 -35 0
-42 -7 -13 -36 0
-40 -12 -15 -37 0
-41 -11 -14 -38 0
-42 -10 -13 -39 0
-42 -41 0
-41 -40 0
-42 -40 0
40 41 42 0
-43 -3 -18 -30 0
-44 -2 -17 -29 0
-45 -1 -16 -28 0
-43 -6 -18 -31 0
-44 -5 -17 -32 0
-45 -4 -16 -33 0
-43 -9 -18 -34 0
-44 -8 -17 -35 0
-45 -7 -16 -36 0
-43 -12 -18 -37 0
-44 -11 -17 -38 0
-45 -10 -16 -39 0
-43 -15 -18 -40 0
-44 -14 -17 -41 0
-45 -13 -16 -42 0
-45 -44 0
-44 -43 0
-45 -43 0
43 44 45 0
-46 -3 -21 -30 0
-47 -2 -20 -29 0
-48 -1 -19 -28 0
-46 -6 -21 -31 0
-47 -5 -20 -32 0
-48 -4 -19 -33 0
-46 -9 -21 -34 0
-47 -8 -20 -35 0
-48 -7 -19 -36 0
-46 -12 -21 -37 0
-47 -11 -20 -38 0
-48 -10 -19 -39 0
-46 -15 -21 -40 0
-47 -14 -20 -41 0
-48 -13 -19 -42 0
-46 -18 -21 -43 0
-47 -17 -20 -44 0
-48 -16 -19 -45 0
-48 -47 0
-47 -46 0
-48 -46 0
46 47 48 0
-49 -3 -24 -30 0
-50 -2 -23 -29 0
-51 -1 -22 -28 0
-49 -6 -24 -31 0
-50 -5 -23 -32 0
-51 -4 -22 -33 0
-49 -9 -24 -34 0
-50 -8 -23 -35 0
-51 -7 -22 -36 0
-49 -12 -24 -37 0
-50 -11 -23 -38 0
-51 -10 -22 -39 0
-49 -15 -24 -40 0
-50 -14 -23 -41 0
-51 -13 -22 -42 0
-49 -18 -24 -43 0
-50 -17 -23 -44 0
-51 -16 -22 -45 0
-49 -21 -24 -46 0
-50 -20 -23 -47 0
-51 -19 -22 -48 0
-51 -50 0
-50 -49 0
-51 -49 0
49 50 51 0
-52 -3 -27 -30 0
-53 -2 -26 -29 0
-54 -1 -25 -28 0
-52 -6 -27 -31 0
-53 -5 -26 -32 0
-54 -4 -25 -33 0
-52 -9 -27 -34 0
-53 -8 -26 -35 0
-54 -7 -25 -36 0
-52 -12 -27 -37 0
-53 -11 -26 -38 0
-54 -10 -25 -39 0
-52 -15 -27 -40 0
-53 -14 -26 -41 0
-54 -13 -25 -42 0
-52 -18 -27 -43 0
-53 -17 -26 -44 0
-54 -16 -25 -45 0
-52 -21 -27 -46 0
-53 -20 -26 -47 0
-54 -19 -25 -48 0
-52 -24 -27 -49 0
-53 -23 -26 -50 0
-54 -22 -25 -51 0
-54 -53 0
-53 -52 0
-54 -52 0
52 53 54 0
-55 -56 0
-56 -57 0
-55 -57 0
57 56 55 0
-58 -3 -6 -57 0
-59 -2 -5 -56 0
-60 -1 -4 -55 0
-58 -30 -31 -57 0
-59 -29 -32 -56 0
-60 -28 -33 -55 0
-60 -59 0
-59 -58 0
-60 -58 0
58 59 60 0
-61 -3 -9 -57 0
-62 -2 -8 -56 0
-63 -1 -7 -55 0
-61 -6 -9 -58 0
-62 -5 -8 -59 0
-63 -4 -7 -60 0
-61 -30 -34 -57 0
-62 -29 -35 -56 0
-63 -28 -36 -55 0
-61 -31 -34 -58 0
-62 -32 -35 -59 0
-63 -33 -36 -60 0
-63 -62 0
-62 -61 0
-63 -61 0
61 62 63 0
-64 -3 -12 -57 0
-65 -2 -11 -56 0
-66 -1 -10 -55 0
-64 -6 -12 -58 0
-65 -5 -11 -59 0
-66 -4 -10 -60 0
-64 -9 -12 -61 0
-65 -8 -11 -62 0
-66 -7 -10 -63 0
-64 -30 -37 -57 0
-65 -29 -38 -56 0
-66 -28 -39 -55 0
-64 -31 -37 -58 0
-65 -32 -38 -59 0
-66 -33 -39 -60 0
-64 -34 -37 -61 0
-65 -35 -38 -62 0
-66 -36 -39 -63 0
-66 -65 0
-65 -64 0
-66 -64 0
64 65 66 0
-67 -3 -15 -57 0
-68 -2 -14 -56 0
-69 -1 -13 -55 0
-67 -6 -15 -58 0
-68 -5 -14 -59 0
-69 -4 -13 -60 0
-67 -9 -15 -61 0
-68 -8 -14 -62 0
-69 -7 -13 -63 0
-67 -12 -15 -64 0
-68 -11 -14 -65 0
-69 -10 -13 -66 0
-67 -30 -40 -57 0
-68 -29 -41 -56 0
-69 -28 -42 -55 0
-67 -31 -40 -58 0
-68 -32 -41 -59 0
-69 -33 -42 -60 0
-67 -34 -40 -61 0
-68 -35 -41 -62 0
-69 -36 -42 -63 0
-67 -37 -40 -64 0
-68 -38 -41 -65 0
-69 -39 -42 -66 0
-69 -68 0
-68 -67 0
-69 -67 0
67 68 69 0
-70 -3 -18 -57 0
-71 -2 -17 -56 0
-72 -1 -16 -55 0
-70 -6 -18 -58 0
-71 -5 -17 -59 0
-72 -4 -16 -60 0
-70 -9 -18 -61 0
-71 -8 -17 -62 0
-72 -7 -16 -63 0
-70 -12 -18 -64 0
-71 -11 -17 -65 0
-72 -10 -16 -66 0
-70 -15 -18 -67 0
-71 -14 -17 -68 0
-72 -13 -16 -69 0
-70 -30 -43 -57 0
-71 -29 -44 -56 0
-72 -28 -45 -55 0
-70 -31 -43 -58 0
-71 -32 -44 -59 0
-72 -33 -45 -60 0
-70 -34 -43 -61 0
-71 -35 -44 -62 0
-72 -36 -45 -63 0
-70 -37 -43 -64 0
-71 -38 -44 -65 0
-72 -39 -45 -66 0
-70 -40 -43 -67 0
-71 -41 -44 -68 0
-72 -42 -45 -69 0
-72 -71 0
-71 -70 0
-72 -70 0
70 71 72 0
-73 -3 -21 -57 0
-74 -2 -20 -56 0
-75 -1 -19 -55 0
-73 -6 -21 -58 0
-74 -5 -20 -59 0
-75 -4 -19 -60 0
-73 -9 -21 -61 0
-74 -8 -20 -62 0
-75 -7 -19 -63 0
-73 -12 -21 -64 0
-74 -11 -20 -65 0
-75 -10 -19 -66 0
-73 -15 -21 -67 0
-74 -14 -20 -68 0
-75 -13 -19 -69 0
-73 -18 -21 -70 0
-74 -17 -20 -71 0
-75 -16 -19 -72 0
-73 -30 -46 -57 0
-74 -29 -47 -56 0
-75 -28 -48 -55 0
-73 -31 -46 -58 0
-74 -32 -47 -59 0
-75 -33 -48 -60 0
-73 -34 -46 -61 0
-74 -35 -47 -62 0
-75 -36 -48 -63 0
-73 -37 -46 -64 0
-74 -38 -47 -65 0
-75 -39 -48 -66 0
-73 -40 -46 -67 0
-74 -41 -47 -68 0
-75 -42 -48 -69 0
-73 -43 -46 -70 0
-74 -44 -47 -71 0
-75 -45 -48 -72 0
-75 -74 0
-74 -73 0
-75 -73 0
73 74 75 0
-76 -3 -24 -57 0
-77 -2 -23 -56 0
-78 -1 -22 -55 0
-76 -6 -24 -58 0
-77 -5 -23 -59 0
-78 -4 -22 -60 0
-76 -9 -24 -61 0
-77 -8 -23 -62 0
-78 -7 -22 -63 0
-76 -12 -24 -64 0
-77 -11 -23 -65 0
-78 -10 -22 -66 0
-76 -15 -24 -67 0
-77 -14 -23 -68 0
-78 -13 -22 -69 0
-76 -18 -24 -70 0
-77 -17 -23 -71 0
-78 -16 -22 -72 0
-76 -21 -24 -73 0
-77 -20 -23 -74 0
-78 -19 -22 -75 0
-76 -30 -49 -57 0
-77 -29 -50 -56 0
-78 -28 -51 -55 0
-76 -31 -49 -58 0
-77 -32 -50 -59 0
-78 -33 -51 -60 0
-76 -34 -49 -61 0
-77 -35 -50 -62 0
-78 -36 -51 -63 0
-76 -37 -49 -64 0
-77 -38 -50 -65 0
-78 -39 -51 -66 0
-76 -40 -49 -67 0
-77 -41 -50 -68 0
-78 -42 -51 -69 0
-76 -43 -49 -70 0
-77 -44 -50 -71 0
-78 -45 -51 -72 0
-76 -46 -49 -73 0
-77 -47 -50 -74 0
-78 -48 -51 -75 0
-78 -77 0
-77 -76 0
-78 -76 0
76 77 78 0
-79 -3 -27 -57 0
-80 -2 -26 -56 0
-81 -1 -25 -55 0
-79 -6 -27 -58 0
-80 -5 -26 -59 0
-81 -4 -25 -60 0
-79 -9 -27 -61 0
-80 -8 -26 -62 0
-81 -7 -25 -63 0
-79 -12 -27 -64 0
-80 -11 -26 -65 0
-81 -10 -25 -66 0
-79 -15 -27 -67 0
-80 -14 -26 -68 0
-81 -13 -25 -69 0
-79 -18 -27 -70 0
-80 -17 -26 -71 0
-81 -16 -25 -72 0
-79 -21 -27 -73 0
-80 -20 -26 -74 0
-81 -19 -25 -75 0
-79 -24 -27 -76 0
-80 -23 -26 -77 0
-81 -22 -25 -78 0
-79 -30 -52 -57 0
-80 -29 -53 -56 0
-81 -28 -54 -55 0
-79 -31 -52 -58 0
-80 -32 -53 -59 0
-81 -33 -54 -60 0
-79 -34 -52 -61 0
-80 -35 -53 -62 0
-81 -36 -54 -63 0
-79 -37 -52 -64 0
-80 -38 -53 -65 0
-81 -39 -54 -66 0
-79 -40 -52 -67 0
-80 -41 -53 -68 0
-81 -42 -54 -69 0
-79 -43 -52 -70 0
-80 -44 -53 -71 0
-81 -45 -54 -72 0
-79 -46 -52 -73 0
-80 -47 -53 -74 0
-81 -48 -54 -75 0
-79 -49 -52 -76 0
-80 -50 -53 -77 0
-81 -51 -54 -78 0
-81 -80 0
-80 -79 0
-81 -79 0
79 80 81 0
-82 -83 0
-83 -84 0
-82 -84 0
84 83 82 0
-85 -3 -6 -84 0
-86 -2 -5 -83 0
-87 -1 -4 -82 0
-85 -30 -31 -84 0
-86 -29 -32 -83 0
-87 -28 -33 -82 0
-85 -57 -58 -84 0
-86 -56 -59 -83 0
-87 -55 -60 -82 0
-87 -86 0
-86 -85 0
-87 -85 0
85 86 87 0
-88 -3 -9 -84 0
-89 -2 -8 -83 0
-90 -1 -7 -82 0
-88 -6 -9 -85 0
-89 -5 -8 -86 0
-90 -4 -7 -87 0
-88 -30 -34 -84 0
-89 -29 -35 -83 0
-90 -28 -36 -82 0
-88 -31 -34 -85 0
-89 -32 -35 -86 0
-90 -33 -36 -87 0
-88 -57 -61 -84 0
-89 -56 -62 -83 0
-90 -55 -63 -82 0
-88 -58 -61 -85 0
-89 -59 -62 -86 0
-90 -60 -63 -87 0
-90 -89 0
-89 -88 0
-90 -88 0
88 89 90 0
-91 -3 -12 -84 0
-92 -2 -11 -83 0
-93 -1 -10 -82 0
-91 -6 -12 -85 0
-92 -5 -11 -86 0
-93 -4 -10 -87 0
-91 -9 -12 -88 0
-92 -8 -11 -89 0
-93 -7 -10 -90 0
-91 -30 -37 -84 0
-92 -29 -38 -83 0
-93 -28 -39 -82 0
-91 -31 -37 -85 0
-92 -32 -38 -86 0
-93 -33 -39 -87 0
-91 -34 -37 -88 0
-92 -35 -38 -89 0
-93 -36 -39 -90 0
-91 -57 -64 -84 0
-92 -56 -65 -83 0
-93 -55 -66 -82 0
-91 -58 -64 -85 0
-92 -59 -65 -86 0
-93 -60 -66 -87 0
-91 -61 -64 -88 0
-92 -62 -65 -89 0
-93 -63 -66 -90 0
-93 -92 0
-92 -91 0
-93 -91 0
91 92 93 0
-94 -3 -15 -84 0
-95 -2 -14 -83 0
-96 -1 -13 -82 0
-94 -6 -15 -85 0
-95 -5 -14 -86 0
-96 -4 -13 -87 0
-94 -9 -15 -88 0
-95 -8 -14 -89 0
-96 -7 -13 -90 0
-94 -12 -15 -91 0
-95 -11 -14 -92 0
-96 -10 -13 -93 0
-94 -30 -40 -84 0
-95 -29 -41 -83 0
-96 -28 -42 -82 0
-94 -31 -40 -85 0
-95 -32 -41 -86 0
-96 -33 -42 -87 0
-94 -34 -40 -88 0
-95 -35 -41 -89 0
-96 -36 -42 -90 0
-94 -37 -40 -91 0
-95 -38 -41 -92 0
-96 -39 -42 -93 0
-94 -57 -67 -84 0
-95 -56 -68 -83 0
-96 -55 -69 -82 0
-94 -58 -67 -85 0
-95 -59 -68 -86 0
-96 -60 -69 -87 0
-94 -61 -67 -88 0
-95 -62 -68 -89 0
-96 -63 -69 -90 0
-94 -64 -67 -91 0
-95 -65 -68 -92 0
-96 -66 -69 -93 0
-96 -95 0
-95 -94 0
-96 -94 0
94 95 96 0
-97 -3 -18 -84 0
-98 -2 -17 -83 0
-99 -1 -16 -82 0
-97 -6 -18 -85 0
-98 -5 -17 -86 0
-99 -4 -16 -87 0
-97 -9 -18 -88 0
-98 -8 -17 -89 0
-99 -7 -16 -90 0
-97 -12 -18 -91 0
-98 -11 -17 -92 0
-99 -10 -16 -93 0
-97 -15 -18 -94 0
-98 -14 -17 -95 0
-99 -13 -16 -96 0
-97 -30 -43 -84 0
-98 -29 -44 -83 0
-99 -28 -45 -82 0
-97 -31 -43 -85 0
-98 -32 -44 -86 0
-99 -33 -45 -87 0
-97 -34 -43 -88 0
-98 -35 -44 -89 0
-99 -36 -45 -90 0
-97 -37 -43 -91 0
-98 -38 -44 -92 0
-99 -39 -45 -93 0
-97 -40 -43 -94 0
-98 -41 -44 -95 0
-99 -42 -45 -96 0
-97 -57 -70 -84 0
-98 -56 -71 -83 0
-99 -55 -72 -82 0
-97 -58 -70 -85 0
-98 -59 -71 -86 0
-99 -60 -72 -87 0
-97 -61 -70 -88 0
-98 -62 -71 -89 0
-99 -63 -72 -90 0
-97 -64 -70 -91 0
-98 -65 -71 -92 0
-99 -66 -72 -93 0
-97 -67 -70 -94 0
-98 -68 -71 -95 0
-99 -69 -72 -96 0
-99 -98 0
-98 -97 0
-99 -97 0
97 98 99 0
-100 -3 -21 -84 0
-101 -2 -20 -83 0
-102 -1 -19 -82 0
-100 -6 -21 -85 0
-101 -5 -20 -86 0
-102 -4 -19 -87 0
-100 -9 -21 -88 0
-101 -8 -20 -89 0
-102 -7 -19 -90 0
-100 -12 -21 -91 0
-101 -11 -20 -92 0
-102 -10 -19 -93 0
-100 -15 -21 -94 0
-101 -14 -20 -95 0
-102 -13 -19 -96 0
-100 -18 -21 -97 0
-101 -17 -20 -98 0
-102 -16 -19 -99 0
-100 -30 -46 -84 0
-101 -29 -47 -83 0
-102 -28 -48 -82 0
-100 -31 -46 -85 0
-101 -32 -47 -86 0
-102 -33 -48 -87 0
-100 -34 -46 -88 0
-101 -35 -47 -89 0
-102 -36 -48 -90 0
-100 -37 -46 -91 0
-101 -38 -47 -92 0
-102 -39 -48 -93 0
-100 -40 -46 -94 0
-101 -41 -47 -95 0
-102 -42 -48 -96 0
-100 -43 -46 -97 0
-101 -44 -47 -98 0
-102 -45 -48 -99 0
-100 -57 -73 -84 0
-101 -56 -74 -83 0
-102 -55 -75 -82 0
-100 -58 -73 -85 0
-101 -59 -74 -86 0
-102 -60 -75 -87 0
-100 -61 -73 -88 0
-101 -62 -74 -89 0
-102 -63 -75 -90 0
-100 -64 -73 -91 0
-101 -65 -74 -92 0
-102 -66 -75 -93 0
-100 -67 -73 -94 0
-101 -68 -74 -95 0
-102 -69 -75 -96 0
-100 -70 -73 -97 0
-101 -71 -74 -98 0
-102 -72 -75 -99 0
-102 -101 0
-101 -100 0
-102 -100 0
100 101 102 0
-103 -3 -24 -84 0
-104 -2 -23 -83 0
-105 -1 -22 -82 0
-103 -6 -24 -85 0
-104 -5 -23 -86 0
-105 -4 -22 -87 0
-103 -9 -24 -88 0
-104 -8 -23 -89 0
-105 -7 -22 -90 0
-103 -12 -24 -91 0
-104 -11 -23 -92 0
-105 -10 -22 -93 0
-103 -15 -24 -94 0
-104 -14 -23 -95 0
-105 -13 -22 -96 0
-103 -18 -24 -97 0
-104 -17 -23 -98 0
-105 -16 -22 -99 0
-103 -21 -24 -100 0
-104 -20 -23 -101 0
-105 -19 -22 -102 0
-103 -30 -49 -84 0
-104 -29 -50 -83 0
-105 -28 -51 -82 0
-103 -31 -49 -85 0
-104 -32 -50 -86 0
-105 -33 -51 -87 0
-103 -34 -49 -88 0
-104 -35 -50 -89 0
-105 -36 -51 -90 0
-103 -37 -49 -91 0
-104 -38 -50 -92 0
-105 -39 -51 -93 0
-103 -40 -49 -94 0
-104 -41 -50 -95 0
-105 -42 -51 -96 0
-103 -43 -49 -97 0
-104 -44 -50 -98 0
-105 -45 -51 -99 0
-103 -46 -49 -100 0
-104 -47 -50 -101 0
-105 -48 -51 -102 0
-103 -57 -76 -84 0
-104 -56 -77 -83 0
-105 -55 -78 -82 0
-103 -58 -76 -85 0
-104 -59 -77 -86 0
-105 -60 -78 -87 0
-103 -61 -76 -88 0
-104 -62 -77 -89 0
-105 -63 -78 -90 0
-103 -64 -76 -91 0
-104 -65 -77 -92 0
-105 -66 -78 -93 0
-103 -67 -76 -94 0
-104 -68 -77 -95 0
-105 -69 -78 -96 0
-103 -70 -76 -97 0
-104 -71 -77 -98 0
-105 -72 -78 -99 0
-103 -73 -76 -100 0
-104 -74 -77 -101 0
-105 -75 -78 -102 0
-105 -104 0
-104 -103 0
-105 -103 0
103 104 105 0
-106 -3 -27 -84 0
-107 -2 -26 -83 0
-108 -1 -25 -82 0
-106 -6 -27 -85 0
-107 -5 -26 -86 0
-108 -4 -25 -87 0
-106 -9 -27 -88 0
-107 -8 -26 -89 0
-108 -7 -25 -90 0
-106 -12 -27 -91 0
-107 -11 -26 -92 0
-108 -10 -25 -93 0
-106 -15 -27 -94 0
-107 -14 -26 -95 0
-108 -13 -25 -96 0
-106 -18 -27 -97 0
-107 -17 -26 -98 0
-108 -16 -25 -99 0
-106 -21 -27 -100 0
-107 -20 -26 -101 0
-108 -19 -25 -102 0
-106 -24 -27 -103 0
-107 -23 -26 -104 0
-108 -22 -25 -105 0
-106 -30 -52 -84 0
-107 -29 -53 -83 0
-108 -28 -54 -82 0
-106 -31 -52 -85 0
-107 -32 -53 -86 0
-108 -33 -54 -87 0
-106 -34 -52 -88 0
-107 -35 -53 -89 0
-108 -36 -54 -90 0
-106 -37 -52 -91 0
-107 -38 -53 -92 0
-108 -39 -54 -93 0
-106 -40 -52 -94 0
-107 -41 -53 -95 0
-108 -42 -54 -96 0
-106 -43 -52 -97 0
-107 -44 -53 -98 0
-108 -45 -54 -99 0
-106 -46 -52 -100 0
-107 -47 -53 -101 0
-108 -48 -54 -102 0
-106 -49 -52 -103 0
-107 -50 -53 -104 0
-108 -51 -54 -105 0
-106 -57 -79 -84 0
-107 -56 -80 -83 0
-108 -55 -81 -82 0
-106 -58 -79 -85 0
-107 -59 -80 -86 0
-108 -60 -81 -87 0
-106 -61 -79 -88 0
-107 -62 -80 -89 0
-108 -63 -81 -90 0
-106 -64 -79 -91 0
-107 -65 -80 -92 0
-108 -66 -81 -93 0
-106 -67 -79 -94 0
-107 -68 -80 -95 0
-108 -69 -81 -96 0
-106 -70 -79 -97 0
-107 -71 -80 -98 0
-108 -72 -81 -99 0
-106 -73 -79 -100 0
-107 -74 -80 -101 0
-108 -75 -81 -102 0
-106 -76 -79 -103 0
-107 -77 -80 -104 0
-108 -78 -81 -105 0
-108 -107 0
-107 -106 0
-108 -106 0
106 107 108 0
-109 -110 0
-110 -111 0
-109 -111 0
111 110 109 0
-112 -3 -6 -111 0
-113 -2 -5 -110 0
-114 -1 -4 -109 0
-112 -30 -31 -111 0
-113 -29 -32 -110 0
-114 -28 -33 -109 0
-112 -57 -58 -111 0
-113 -56 -59 -110 0
-114 -55 -60 -109 0
-112 -84 -85 -111 0
-113 -83 -86 -110 0
-114 -82 -87 -109 0
-114 -113 0
-113 -112 0
-114 -112 0
112 113 114 0
-115 -3 -9 -111 0
-116 -2 -8 -110 0
-117 -1 -7 -109 0
-115 -6 -9 -112 0
-116 -5 -8 -113 0
-117 -4 -7 -114 0
-115 -30 -34 -111 0
-116 -29 -35 -110 0
-117 -28 -36 -109 0
-115 -31 -34 -112 0
-116 -32 -35 -113 0
-117 -33 -36 -114 0
-115 -57 -61 -111 0
-116 -56 -62 -110 0
-117 -55 -63 -109 0
-115 -58 -61 -112 0
-116 -59 -62 -113 0
-117 -60 -63 -114 0
-115 -84 -88 -111 0
-116 -83 -89 -110 0
-117 -82 -90 -109 0
-115 -85 -88 -112 0
-116 -86 -89 -113 0
-117 -87 -90 -114 0
-117 -116 0
-116 -115 0
-117 -115 0
115 116 117 0
-118 -3 -12 -111 0
-119 -2 -11 -110 0
-120 -1 -10 -109 0
-118 -6 -12 -112 0
-119 -5 -11 -113 0
-120 -4 -10 -114 0
-118 -9 -12 -115 0
-119 -8 -11 -116 0
-120 -7 -10 -117 0
-118 -30 -37 -111 0
-119 -29 -38 -110 0
-120 -28 -39 -109 0
-118 -31 -37 -112 0
-119 -32 -38 -113 0
-120 -33 -39 -114 0
-118 -34 -37 -115 0
-119 -35 -38 -116 0
-120 -36 -39 -117 0
-118 -57 -64 -111 0
-119 -56 -65 -110 0
-120 -55 -66 -109 0
-118 -58 -64 -112 0
-119 -59 -65 -113 0
-120 -60 -66 -114 0
-118 -61 -64 -115 0
-119 -62 -65 -116 0
-120 -63 -66 -117 0
-118 -84 -91 -111 0
-119 -83 -92 -110 0
-120 -82 -93 -109 0
-118 -85 -91 -112 0
-119 -86 -92 -113 0
-120 -87 -93 -114 0
-118 -88 -91 -115 0
-119 -89 -92 -116 0
-120 -90 -93 -117 0
-120 -119 0
-119 -118 0
-120 -118 0
118 119 120 0
-121 -3 -15 -111 0
-122 -2 -14 -110 0
-123 -1 -13 -109 0
-121 -6 -15 -112 0
-122 -5 -14 -113 0
-123 -4 -13 -114 0
-121 -9 -15 -115 0
-122 -8 -14 -116 0
-123 -7 -13 -117 0
-121 -12 -15 -118 0
-122 -11 -14 -119 0
-123 -10 -13 -120 0
-121 -30 -40 -111 0
-122 -29 -41 -110 0
-123 -28 -42 -109 0
-121 -31 -40 -112 0
-122 -32 -41 -113 0
-123 -33 -42 -114 0
-121 -34 -40 -115 0
-122 -35 -41 -116 0
-123 -36 -42 -117 0
-121 -37 -40 -118 0
-122 -38 -41 -119 0
-123 -39 -42 -120 0
-121 -57 -67 -111 0
-122 -56 -68 -110 0
-123 -55 -69 -109 0
-121 -58 -67 -112 0
-122 -59 -68 -113 0
-123 -60 -69 -114 0
-121 -61 -67 -115 0
-122 -62 -68 -116 0
-123 -63 -69 -117 0
-121 -64 -67 -118 0
-122 -65 -68 -119 0
-123 -66 -69 -120 0
-121 -84 -94 -111 0
-122 -83 -95 -110 0
-123 -82 -96 -109 0
-121 -85 -94 -112 0
-122 -86 -95 -113 0
-123 -87 -96 -114 0
-121 -88 -94 -115 0
-122 -89 -95 -116 0
-123 -90 -96 -117 0
-121 -91 -94 -118 0
-122 -92 -95 -119 0
-123 -93 -96 -120 0
-123 -122 0
-122 -121 0
-123 -121 0
121 122 123 0
-124 -3 -18 -111 0
-125 -2 -17 -110 0
-126 -1 -16 -109 0
-124 -6 -18 -112 0
-125 -5 -17 -113 0
-126 -4 -16 -114 0
-124 -9 -18 -115 0
-125 -8 -17 -116 0
-126 -7 -16 -117 0
-124 -12 -18 -118 0
-125 -11 -17 -119 0
-126 -10 -16 -120 0
-124 -15 -18 -121 0
-125 -14 -17 -122 0
-126 -13 -16 -123 0
-124 -30 -43 -111 0
-125 -29 -44 -110 0
-126 -28 -45 -109 0
-124 -31 -43 -112 0
-125 -32 -44 -113 0
-126 -33 -45 -114 0
-124 -34 -43 -115 0
-125 -35 -44 -116 0
-126 -36 -45 -117 0
-124 -37 -43 -118 0
-125 -38 -44 -119 0
-126 -39 -45 -120 0
-124 -40 -43 -121 0
-125 -41 -44 -122 0
-126 -42 -45 -123 0
-124 -57 -70 -111 0
-125 -56 -71 -110 0
-126 -55 -72 -109 0
-124 -58 -70 -112 0
-125 -59 -71 -113 0
-126 -60 -72 -114 0
-124 -61 -70 -115 0
-125 -62 -71 -116 0
-126 -63 -72 -117 0
-124 -64 -70 -118 0
-125 -65 -71 -119 0
-126 -66 -72 -120 0
-124 -67 -70 -121 0
-125 -68 -71 -122 0
-126 -69 -72 -123 0
-124 -84 -97 -111 0
-125 -83 -98 -110 0
-126 -82 -99 -109 0
-124 -85 -97 -112 0
-125 -86 -98 -113 0
-126 -87 -99 -114 0
-124 -88 -97 -115 0
-125 -89 -98 -116 0
-126 -90 -99 -117 0
-124 -91 -97 -118 0
-125 -92 -98 -119 0
-126 -93 -99 -120 0
-124 -94 -97 -121 0
-125 -95 -98 -122 0
-126 -96 -99 -123 0
-126 -125 0
-125 -124 0
-126 -124 0
124 125 126 0
-127 -3 -21 -111 0
-128 -2 -20 -110 0
-129 -1 -19 -109 0
-127 -6 -21 -112 0
-128 -5 -20 -113 0
-129 -4 -19 -114 0
-127 -9 -21 -115 0
-128 -8 -20 -116 0
-129 -7 -19 -117 0
-127 -12 -21 -118 0
-128 -11 -20 -119 0
-129 -10 -19 -120 0
-127 -15 -21 -121 0
-128 -14 -20 -122 0
-129 -13 -19 -123 0
-127 -18 -21 -124 0
-128 -17 -20 -125 0
-129 -16 -19 -126 0
-127 -30 -46 -111 0
-128 -29 -47 -110 0
-129 -28 -48 -109 0
-127 -31 -46 -112 0
-128 -32 -47 -113 0
-129 -33 -48 -114 0
-127 -34 -46 -115 0
-128 -35 -47 -116 0
-129 -36 -48 -117 0
-127 -37 -46 -118 0
-128 -38 -47 -119 0
-129 -39 -48 -120 0
-127 -40 -46 -121 0
-128 -41 -47 -122 0
-129 -42 -48 -123 0
-127 -43 -46 -124 0
-128 -44 -47 -125 0
-129 -45 -48 -126 0
-127 -57 -73 -111 0
-128 -56 -74 -110 0
-129 -55 -75 -109 0
-127 -58 -73 -112 0
-128 -59 -74 -113 0
-129 -60 -75 -114 0
-127 -61 -73 -115 0
-128 -62 -74 -116 0
-129 -63 -75 -117 0
-127 -64 -73 -118 0
-128 -65 -74 -119 0
-129 -66 -75 -120 0
-127 -67 -73 -121 0
-128 -68 -74 -122 0
-129 -69 -75 -123 0
-127 -70 -73 -124 0
-128 -71 -74 -125 0
-129 -72 -75 -126 0
-127 -84 -100 -111 0
-128 -83 -101 -110 0
-129 -82 -102 -109 0
-127 -85 -100 -112 0
-128 -86 -101 -113 0
-129 -87 -102 -114 0
-127 -88 -100 -115 0
-128 -89 -101 -116 0
-129 -90 -102 -117 0
-127 -91 -100 -118 0
-128 -92 -101 -119 0
-129 -93 -102 -120 0
-127 -94 -100 -121 0
-128 -95 -101 -122 0
-129 -96 -102 -123 0
-127 -97 -100 -124 0
-128 -98 -101 -125 0
-129 -99 -102 -126 0
-129 -128 0
-128 -127 0
-129 -127 0
127 128 129 0
-130 -3 -24 -111 0
-131 -2 -23 -110 0
-132 -1 -22 -109 0
-130 -6 -24 -112 0
-131 -5 -23 -113 0
-132 -4 -22 -114 0
-130 -9 -24 -115 0
-131 -8 -23 -116 0
-132 -7 -22 -117 0
-130 -12 -24 -118 0
-131 -11 -23 -119 0
-132 -10 -22 -120 0
-130 -15 -24 -121 0
-131 -14 -23 -122 0
-132 -13 -22 -123 0
-130 -18 -24 -124 0
-131 -17 -23 -125 0
-132 -16 -22 -126 0
-130 -21 -24 -127 0
-131 -20 -23 -128 0
-132 -19 -22 -129 0
-130 -30 -49 -111 0
-131 -29 -50 -110 0
-132 -28 -51 -109 0
-130 -31 -49 -112 0
-131 -32 -50 -113 0
-132 -33 -51 -114 0
-130 -34 -49 -115 0
-131 -35 -50 -116 0
-132 -36 -51 -117 0
-130 -37 -49 -118 0
-131 -38 -50 -119 0
-132 -39 -51 -120 0
-130 -40 -49 -121 0
-131 -41 -50 -122 0
-132 -42 -51 -123 0
-130 -43 -49 -124 0
-131 -44 -50 -125 0
-132 -45 -51 -126 0
-130 -46 -49 -127 0
-131 -47 -50 -128 0
-132 -48 -51 -129 0
-130 -57 -76 -111 0
-131 -56 -77 -110 0
-132 -55 -78 -109 0
-130 -58 -76 -112 0
-131 -59 -77 -113 0
-132 -60 -78 -114 0
-130 -61 -76 -115 0
-131 -62 -77 -116 0
-132 -63 -78 -117 0
-130 -64 -76 -118 0
-131 -65 -77 -119 0
-132 -66 -78 -120 0
-130 -67 -76 -121 0
-131 -68 -77 -122 0
-132 -69 -78 -123 0
-130 -70 -76 -124 0
-131 -71 -77 -125 0
-132 -72 -78 -126 0
-130 -73 -76 -127 0
-131 -74 -77 -128 0
-132 -75 -78 -129 0
-130 -84 -103 -111 0
-131 -83 -104 -110 0
-132 -82 -105 -109 0
-130 -85 -103 -112 0
-131 -86 -104 -113 0
-132 -87 -105 -114 0
-130 -88 -103 -115 0
-131 -89 -104 -116 0
-132 -90 -105 -117 0
-130 -91 -103 -118 0
-131 -92 -104 -119 0
-132 -93 -105 -120 0
-130 -94 -103 -121 0
-131 -95 -104 -122 0
-132 -96 -105 -123 0
-130 -97 -103 -124 0
-131 -98 -104 -125 0
-132 -99 -105 -126 0
-130 -100 -103 -127 0
-131 -101 -104 -128 0
-132 -102 -105 -129 0
-132 -131 0
-131 -130 0
-132 -130 0
130 131 132 0
-133 -3 -27 -111 0
-134 -2 -26 -110 0
-135 -1 -25 -109 0
-133 -6 -27 -112 0
-134 -5 -26 -113 0
-135 -4 -25 -114 0
-133 -9 -27 -115 0
-134 -8 -26 -116 0
-135 -7 -25 -117 0
-133 -12 -27 -118 0
-134 -11 -26 -119 0
-135 -10 -25 -120 0
-133 -15 -27 -121 0
-134 -14 -26 -122 0
-135 -13 -25 -123 0
-133 -18 -27 -124 0
-134 -17 -26 -125 0
-135 -16 -25 -126 0
-133 -21 -27 -127 0
-134 -20 -26 -128 0
-135 -19 -25 -129 0
-133 -24 -27 -130 0
-134 -23 -26 -131 0
-135 -22 -25 -132 0
-133 -30 -52 -111 0
-134 -29 -53 -110 0
-135 -28 -54 -109 0
-133 -31 -52 -112 0
-134 -32 -53 -113 0
-135 -33 -54 -114 0
-133 -34 -52 -115 0
-134 -35 -53 -116 0
-135 -36 -54 -117 0
-133 -37 -52 -118 0
-134 -38 -53 -119 0
-135 -39 -54 -120 0
-133 -40 -52 -121 0
-134 -41 -53 -122 0
-135 -42 -54 -123 0
-133 -43 -52 -124 0
-134 -44 -53 -125 0
-135 -45 -54 -126 0
-133 -46 -52 -127 0
-134 -47 -53 -128 0
-135 -48 -54 -129 0
-133 -49 -52 -130 0
-134 -50 -53 -131 0
-135 -51 -54 -132 0
-133 -57 -79 -111 0
-134 -56 -80 -110 0
-135 -55 -81 -109 0
-133 -58 -79 -112 0
-134 -59 -80 -113 0
-135 -60 -81 -114 0
-133 -61 -79 -115 0
-134 -62 -80 -116 0
-135 -63 -81 -117 0
-133 -64 -79 -118 0
-134 -65 -80 -119 0
-135 -66 -81 -120 0
-133 -67 -79 -121 0
-134 -68 -80 -122 0
-135 -69 -81 -123 0
-133 -70 -79 -124 0
-134 -71 -80 -125 0
-135 -72 -81 -126 0
-133 -73 -79 -127 0
-134 -74 -80 -128 0
-135 -75 -81 -129 0
-133 -76 -79 -130 0
-134 -77 -80 -131 0
-135 -78 -81 -132 0
-133 -84 -106 -111 0
-134 -83 -107 -110 0
-135 -82 -108 -109 0
-133 -85 -106 -112 0
-134 -86 -107 -113 0
-135 -87 -108 -114 0
-133 -88 -106 -115 0
-134 -89 -107 -116 0
-135 -90 -108 -117 0
-133 -91 -106 -118 0
-134 -92 -107 -119 0
-135 -93 -108 -120 0
-133 -94 -106 -121 0
-134 -95 -107 -122 0
-135 -96 -108 -123 0
-133 -97 -106 -124 0
-134 -98 -107 -125 0
-135 -99 -108 -126 0
-133 -100 -106 -127 0
-134 -101 -107 -128 0
-135 -102 -108 -129 0
-133 -103 -106 -130 0
-134 -104 -107 -131 0
-135 -105 -108 -132 0
-135 -134 0
-134 -133 0
-135 -133 0
133 134 135 0
-136 -137 0
-137 -138 0
-136 -138 0
138 137 136 0
-139 -3 -6 -138 0
-140 -2 -5 -137 0
-141 -1 -4 -136 0
-139 -30 -31 -138 0
-140 -29 -32 -137 0
-141 -28 -33 -136 0
-139 -57 -58 -138 0
-140 -56 -59 -137 0
-141 -55 -60 -136 0
-139 -84 -85 -138 0
-140 -83 -86 -137 0
-141 -82 -87 -136 0
-139 -111 -112 -138 0
-140 -110 -113 -137 0
-141 -109 -114 -136 0
-141 -140 0
-140 -139 0
-141 -139 0
139 140 141 0
-142 -3 -9 -138 0
-143 -2 -8 -137 0
-144 -1 -7 -136 0
-142 -6 -9 -139 0
-143 -5 -8 -140 0
-144 -4 -7 -141 0
-142 -30 -34 -138 0
-143 -29 -35 -137 0
-144 -28 -36 -136 0
-142 -31 -34 -139 0
-143 -32 -35 -140 0
-144 -33 -36 -141 0
-142 -57 -61 -138 0
-143 -56 -62 -137 0
-144 -55 -63 -136 0
-142 -58 -61 -139 0
-143 -59 -62 -140 0
-144 -60 -63 -141 0
-142 -84 -88 -138 0
-143 -83 -89 -137 0
-144 -82 -90 -136 0
-142 -85 -88 -139 0
-143 -86 -89 -140 0
-144 -87 -90 -141 0
-142 -111 -115 -138 0
-143 -110 -116 -137 0
-144 -109 -117 -136 0
-142 -112 -115 -139 0
-143 -113 -116 -140 0
-144 -114 -117 -141 0
-144 -143 0
-143 -142 0
-144 -142 0
142 143 144 0
-145 -3 -12 -138 0
-146 -2 -11 -137 0
-147 -1 -10 -136 0
-145 -6 -12 -139 0
-146 -5 -11 -140 0
-147 -4 -10 -141 0
-145 -9 -12 -142 0
-146 -8 -11 -143 0
-147 -7 -10 -144 0
-145 -30 -37 -138 0
-146 -29 -38 -137 0
-147 -28 -39 -136 0
-145 -31 -37 -139 0
-146 -32 -38 -140 0
-147 -33 -39 -141 0
-145 -34 -37 -142 0
-146 -35 -38 -143 0
-147 -36 -39 -144 0
-145 -57 -64 -138 0
-146 -56 -65 -137 0
-147 -55 -66 -136 0
-145 -58 -64 -139 0
-146 -59 -65 -140 0
-147 -60 -66 -141 0
-145 -61 -64 -142 0
-146 -62 -65 -143 0
-147 -63 -66 -144 0
-145 -84 -91 -138 0
-146 -83 -92 -137 0
-147 -82 -93 -136 0
-145 -85 -91 -139 0
-146 -86 -92 -140 0
-147 -87 -93 -141 0
-145 -88 -91 -142 0
-146 -89 -92 -143 0
-147 -90 -93 -144 0
-145 -111 -118 -138 0
-146 -110 -119 -137 0
-147 -109 -120 -136 0
-145 -112 -118 -139 0
-146 -113 -119 -140 0
-147 -114 -120 -141 0
-145 -115 -118 -142 0
-146 -116 -119 -143 0
-147 -117 -120 -144 0
-147 -146 0
-146 -145 0
-147 -145 0
145 146 147 0
-148 -3 -15 -138 0
-149 -2 -14 -137 0
-150 -1 -13 -136 0
-148 -6 -15 -139 0
-149 -5 -14 -140 0
-150 -4 -13 -141 0
-148 -9 -15 -142 0
-149 -8 -14 -143 0
-150 -7 -13 -144 0
-148 -12 -15 -145 0
-149 -11 -14 -146 0
-150 -10 -13 -147 0
-148 -30 -40 -138 0
-149 -29 -41 -137 0
-150 -28 -42 -136 0
-148 -31 -40 -139 0
-149 -32 -41 -140 0
-150 -33 -42 -141 0
-148 -34 -40 -142 0
-149 -35 -41 -143 0
-150 -36 -42 -144 0
-148 -37 -40 -145 0
-149 -38 -41 -146 0
-150 -39 -42 -147 0
-148 -57 -67 -138 0
-149 -56 -68 -137 0
-150 -55 -69 -136 0
-148 -58 -67 -139 0
-149 -59 -68 -140 0
-150 -60 -69 -141 0
-148 -61 -67 -142 0
-149 -62 -68 -143 0
-150 -63 -69 -144 0
-148 -64 -67 -145 0
-149 -65 -68 -146 0
-150 -66 -69 -147 0
-148 -84 -94 -138 0
-149 -83 -95 -137 0
-150 -82 -96 -136 0
-148 -85 -94 -139 0
-149 -86 -95 -140 0
-150 -87 -96 -141 0
-148 -88 -94 -142 0
-149 -89 -95 -143 0
-150 -90 -96 -144 0
-148 -91 -94 -145 0
-149 -92 -95 -146 0
-150 -93 -96 -147 0
-148 -111 -121 -138 0
-149 -110 -122 -137 0
-150 -109 -123 -136 0
-148 -112 -121 -139 0
-149 -113 -122 -140 0
-150 -114 -123 -141 0
-148 -115 -121 -142 0
-149 -116 -122 -143 0
-150 -117 -123 -144 0
-148 -118 -121 -145 0
-149 -119 -122 -146 0
-150 -120 -123 -147 0
-150 -149 0
-149 -148 0
-150 -148 0
148 149 150 0
-151 -3 -18 -138 0
-152 -2 -17 -137 0
-153 -1 -16 -136 0
-151 -6 -18 -139 0
-152 -5 -17 -140 0
-153 -4 -16 -141 0
-151 -9 -18 -142 0
-152 -8 -17 -143 0
-153 -7 -16 -144 0
-151 -12 -18 -145 0
-152 -11 -17 -146 0
-153 -10 -16 -147 0
-151 -15 -18 -148 0
-152 -14 -17 -149 0
-153 -13 -16 -150 0
-151 -30 -43 -138 0
-152 -29 -44 -137 0
-153 -28 -45 -136 0
-151 -31 -43 -139 0
-152 -32 -44 -140 0
-153 -33 -45 -141 0
-151 -34 -43 -142 0
-152 -35 -44 -143 0
-153 -36 -45 -144 0
-151 -37 -43 -145 0
-152 -38 -44 -146 0
-153 -39 -45 -147 0
-151 -40 -43 -148 0
-152 -41 -44 -149 0
-153 -42 -45 -150 0
-151 -57 -70 -138 0
-152 -56 -71 -137 0
-153 -55 -72 -136 0
-151 -58 -70 -139 0
-152 -59 -71 -140 0
-153 -60 -72 -141 0
-151 -61 -70 -142 0
-152 -62 -71 -143 0
-153 -63 -72 -144 0
-151 -64 -70 -145 0
-152 -65 -71 -146 0
-153 -66 -72 -147 0
-151 -67 -70 -148 0
-152 -68 -71 -149 0
-153 -69 -72 -150 0
-151 -84 -97 -138 0
-152 -83 -98 -137 0
-153 -82 -99 -136 0
-151 -85 -97 -139 0
-152 -86 -98 -140 0
-153 -87 -99 -141 0
-151 -88 -97 -142 0
-152 -89 -98 -143 0
-153 -90 -99 -144 0
-151 -91 -97 -145 0
-152 -92 -98 -146 0
-153 -93 -99 -147 0
-151 -94 -97 -148 0
-152 -95 -98 -149 0
-153 -96 -99 -150 0
-151 -111 -124 -138 0
-152 -110 -125 -137 0
-153 -109 -126 -136 0
-151 -112 -124 -139 0
-152 -113 -125 -140 0
-153 -114 -126 -141 0
-151 -115 -124 -142 0
-152 -116 -125 -143 0
-153 -117 -126 -144 0
-151 -118 -124 -145 0
-152 -119 -125 -146 0
-153 -120 -126 -147 0
-151 -121 -124 -148 0
-152 -122 -125 -149 0
-153 -123 -126 -150 0
-153 -152 0
-152 -151 0
-153 -151 0
151 152 153 0
-154 -3 -21 -138 0
-155 -2 -20 -137 0
-156 -1 -19 -136 0
-154 -6 -21 -139 0
-155 -5 -20 -140 0
-156 -4 -19 -141 0
-154 -9 -21 -142 0
-155 -8 -20 -143 0
-156 -7 -19 -144 0
-154 -12 -21 -145 0
-155 -11 -20 -146 0
-156 -10 -19 -147 0
-154 -15 -21 -148 0
-155 -14 -20 -149 0
-156 -13 -19 -150 0
-154 -18 -21 -151 0
-155 -17 -20 -152 0
-156 -16 -19 -153 0
-154 -30 -46 -138 0
-155 -29 -47 -137 0
-156 -28 -48 -136 0
-154 -31 -46 -139 0
-155 -32 -47 -140 0
-156 -33 -48 -141 0
-154 -34 -46 -142 0
-155 -35 -47 -143 0
-156 -36 -48 -144 0
-154 -37 -46 -145 0
-155 -38 -47 -146 0
-156 -39 -48 -147 0
-154 -40 -46 -148 0
-155 -41 -47 -149 0
-156 -42 -48 -150 0
-154 -43 -46 -151 0
-155 -44 -47 -152 0
-156 -45 -48 -153 0
-154 -57 -73 -138 0
-155 -56 -74 -137 0
-156 -55 -75 -136 0
-154 -58 -73 -139 0
-155 -59 -74 -140 0
-156 -60 -75 -141 0
-154 -61 -73 -142 0
-155 -62 -74 -143 0
-156 -63 -75 -144 0
-154 -64 -73 -145 0
-155 -65 -74 -146 0
-156 -66 -75 -147 0
-154 -67 -73 -148 0
-155 -68 -74 -149 0
-156 -69 -75 -150 0
-154 -70 -73 -151 0
-155 -71 -74 -152 0
-156 -72 -75 -153 0
-154 -84 -100 -138 0
-155 -83 -101 -137 0
-156 -82 -102 -136 0
-154 -85 -100 -139 0
-155 -86 -101 -140 0
-156 -87 -102 -141 0
-154 -88 -100 -142 0
-155 -89 -101 -143 0
-156 -90 -102 -144 0
-154 -91 -100 -145 0
-155 -92 -101 -146 0
-156 -93 -102 -147 0
-154 -94 -100 -148 0
-155 -95 -101 -149 0
-156 -96 -102 -150 0
-154 -97 -100 -151 0
-155 -98 -101 -152 0
-156 -99 -102 -153 0
-154 -111 -127 -138 0
-155 -110 -128 -137 0
-156 -109 -129 -136 0
-154 -112 -127 -139 0
-155 -113 -128 -140 0
-156 -114 -129 -141 0
-154 -115 -127 -142 0
-155 -116 -128 -143 0
-156 -117 -129 -144 0
-154 -118 -127 -145 0
-155 -119 -128 -146 0
-156 -120 -129 -147 0
-154 -121 -127 -148 0
-155 -122 -128 -149 0
-156 -123 -129 -150 0
-154 -124 -127 -151 0
-155 -125 -128 -152 0
-156 -126 -129 -153 0
-156 -155 0
-155 -154 0
-156 -154 0
154 155 156 0
-157 -3 -24 -138 0
-158 -2 -23 -137 0
-159 -1 -22 -136 0
-157 -6 -24 -139 0
-158 -5 -23 -140 0
-159 -4 -22 -141 0
-157 -9 -24 -142 0
-158 -8 -23 -143 0
-159 -7 -22 -144 0
-157 -12 -24 -145 0
-158 -11 -23 -146 0
-159 -10 -22 -147 0
-157 -15 -24 -148 0
-158 -14 -23 -149 0
-159 -13 -22 -150 0
-157 -18 -24 -151 0
-158 -17 -23 -152 0
-159 -16 -22 -153 0
-157 -21 -24 -154 0
-158 -20 -23 -155 0
-159 -19 -22 -156 0
-157 -30 -49 -138 0
-158 -29 -50 -137 0
-159 -28 -51 -136 0
-157 -31 -49 -139 0
-158 -32 -50 -140 0
-159 -33 -51 -141 0
-157 -34 -49 -142 0
-158 -35 -50 -143 0
-159 -36 -51 -144 0
-157 -37 -49 -145 0
-158 -38 -50 -146 0
-159 -39 -51 -147 0
-157 -40 -49 -148 0
-158 -41 -50 -149 0
-159 -42 -51 -150 0
-157 -43 -49 -151 0
-158 -44 -50 -152 0
-159 -45 -51 -153 0
-157 -46 -49 -154 0
-158 -47 -50 -155 0
-159 -48 -51 -156 0
-157 -57 -76 -138 0
-158 -56 -77 -137 0
-159 -55 -78 -136 0
-157 -58 -76 -139 0
-158 -59 -77 -140 0
-159 -60 -78 -141 0
-157 -61 -76 -142 0
-158 -62 -77 -143 0
-159 -63 -78 -144 0
-157 -64 -76 -145 0
-158 -65 -77 -146 0
-159 -66 -78 -147 0
-157 -67 -76 -148 0
-158 -68 -77 -149 0
-159 -69 -78 -150 0
-157 -70 -76 -151 0
-158 -71 -77 -152 0
-159 -72 -78 -153 0
-157 -73 -76 -154 0
-158 -74 -77 -155 0
-159 -75 -78 -156 0
-157 -84 -103 -138 0
-158 -83 -104 -137 0
-159 -82 -105 -136 0
-157 -85 -103 -139 0
-158 -86 -104 -140 0
-159 -87 -105 -141 0
-157 -88 -103 -142 0
-158 -89 -104 -143 0
-159 -90 -105 -144 0
-157 -91 -103 -145 0
-158 -92 -104 -146 0
-159 -93 -105 -147 0
-157 -94 -103 -148 0
-158 -95 -104 -149 0
-159 -96 -105 -150 0
-157 -97 -103 -151 0
-158 -98 -104 -152 0
-159 -99 -105 -153 0
-157 -100 -103 -154 0
-158 -101 -104 -155 0
-159 -102 -105 -156 0
-157 -111 -130 -138 0
-158 -110 -131 -137 0
-159 -109 -132 -136 0
-157 -112 -130 -139 0
-158 -113 -131 -140 0
-159 -114 -132 -141 0
-157 -115 -130 -142 0
-158 -116 -131 -143 0
-159 -117 -132 -144 0
-157 -118 -130 -145 0
-158 -119 -131 -146 0
-159 -120 -132 -147 0
-157 -121 -130 -148 0
-158 -122 -131 -149 0
-159 -123 -132 -150 0
-157 -124 -130 -151 0
-158 -125 -131 -152 0
-159 -126 -132 -153 0
-157 -127 -130 -154 0
-158 -128 -131 -155 0
-159 -129 -132 -156 0
-159 -158 0
-158 -157 0
-159 -157 0
157 158 159 0
-160 -3 -27 -138 0
-161 -2 -26 -137 0
-162 -1 -25 -136 0
-160 -6 -27 -139 0
-161 -5 -26 -140 0
-162 -4 -25 -141 0
-160 -9 -27 -142 0
-161 -8 -26 -143 0
-162 -7 -25 -144 0
-160 -12 -27 -145 0
-161 -11 -26 -146 0
-162 -10 -25 -147 0
-160 -15 -27 -148 0
-161 -14 -26 -149 0
-162 -13 -25 -150 0
-160 -18 -27 -151 0
-161 -17 -26 -152 0
-162 -16 -25 -153 0
-160 -21 -27 -154 0
-161 -20 -26 -155 0
-162 -19 -25 -156 0
-160 -24 -27 -157 0
-161 -23 -26 -158 0
-162 -22 -25 -159 0
-160 -30 -52 -138 0
-161 -29 -53 -137 0
-162 -28 -54 -136 0
-160 -31 -52 -139 0
-161 -32 -53 -140 0
-162 -33 -54 -141 0
-160 -34 -52 -142 0
-161 -35 -53 -143 0
-162 -36 -54 -144 0
-160 -37 -52 -145 0
-161 -38 -53 -146 0
-162 -39 -54 -147 0
-160 -40 -52 -148 0
-161 -41 -53 -149 0
-162 -42 -54 -150 0
-160 -43 -52 -151 0
-161 -44 -53 -152 0
-162 -45 -54 -153 0
-160 -46 -52 -154 0
-161 -47 -53 -155 0
-162 -48 -54 -156 0
-160 -49 -52 -157 0
-161 -50 -53 -158 0
-162 -51 -54 -159 0
-160 -57 -79 -138 0
-161 -56 -80 -137 0
-162 -55 -81 -136 0
-160 -58 -79 -139 0
-161 -59 -80 -140 0
-162 -60 -81 -141 0
-160 -61 -79 -142 0
-161 -62 -80 -143 0
-162 -63 -81 -144 0
-160 -64 -79 -145 0
-161 -65 -80 -146 0
-162 -66 -81 -147 0
-160 -67 -79 -148 0
-161 -68 -80 -149 0
-162 -69 -81 -150 0
-160 -70 -79 -151 0
-161 -71 -80 -152 0
-162 -72 -81 -153 0
-160 -73 -79 -154 0
-161 -74 -80 -155 0
-162 -75 -81 -156 0
-160 -76 -79 -157 0
-161 -77 -80 -158 0
-162 -78 -81 -159 0
-160 -84 -106 -138 0
-161 -83 -107 -137 0
-162 -82 -108 -136 0
-160 -85 -106 -139 0
-161 -86 -107 -140 0
-162 -87 -108 -141 0
-160 -88 -106 -142 0
-161 -89 -107 -143 0
-162 -90 -108 -144 0
-160 -91 -106 -145 0
-161 -92 -107 -146 0
-162 -93 -108 -147 0
-160 -94 -106 -148 0
-161 -95 -107 -149 0
-162 -96 -108 -150 0
-160 -97 -106 -151 0
-161 -98 -107 -152 0
-162 -99 -108 -153 0
-160 -100 -106 -154 0
-161 -101 -107 -155 0
-162 -102 -108 -156 0
-160 -103 -106 -157 0
-161 -104 -107 -158 0
-162 -105 -108 -159 0
-160 -111 -133 -138 0
-161 -110 -134 -137 0
-162 -109 -135 -136 0
-160 -112 -133 -139 0
-161 -113 -134 -140 0
-162 -114 -135 -141 0
-160 -115 -133 -142 0
-161 -116 -134 -143 0
-162 -117 -135 -144 0
-160 -118 -133 -145 0
-161 -119 -134 -146 0
-162 -120 -135 -147 0
-160 -121 -133 -148 0
-161 -122 -134 -149 0
-162 -123 -135 -150 0
-160 -124 -133 -151 0
-161 -125 -134 -152 0
-162 -126 -135 -153 0
-160 -127 -133 -154 0
-161 -128 -134 -155 0
-162 -129 -135 -156 0
-160 -130 -133 -157 0
-161 -131 -134 -158 0
-162 -132 -135 -159 0
-162 -161 0
-161 -160 0
-162 -160 0
160 161 162 0
-163 -164 0
-164 -165 0
-163 -165 0
165 164 163 0
-166 -3 -6 -165 0
-167 -2 -5 -164 0
-168 -1 -4 -163 0
-166 -30 -31 -165 0
-167 -29 -32 -164 0
-168 -28 -33 -163 0
-166 -57 -58 -165 0
-167 -56 -59 -164 0
-168 -55 -60 -163 0
-166 -84 -85 -165 0
-167 -83 -86 -164 0
-168 -82 -87 -163 0
-166 -111 -112 -165 0
-167 -110 -113 -164 0
-168 -109 -114 -163 0
-166 -138 -139 -165 0
-167 -137 -140 -164 0
-168 -136 -141 -163 0
-168 -167 0
-167 -166 0
-168 -166 0
166 167 168 0
-169 -3 -9 -165 0
-170 -2 -8 -164 0
-171 -1 -7 -163 0
-169 -6 -9 -166 0
-170 -5 -8 -167 0
-171 -4 -7 -168 0
-169 -30 -34 -165 0
-170 -29 -35 -164 0
-171 -28 -36 -163 0
-169 -31 -34 -166 0
-170 -32 -35 -167 0
-171 -33 -36 -168 0
-169 -57 -61 -165 0
-170 -56 -62 -164 0
-171 -55 -63 -163 0
-169 -58 -61 -166 0
-170 -59 -62 -167 0
-171 -60 -63 -168 0
-169 -84 -88 -165 0
-170 -83 -89 -164 0
-171 -82 -90 -163 0
-169 -85 -88 -166 0
-170 -86 -89 -167 0
-171 -87 -90 -168 0
-169 -111 -115 -165 0
-170 -110 -116 -164 0
-171 -109 -117 -163 0
-169 -112 -115 -166 0
-170 -113 -116 -167 0
-171 -114 -117 -168 0
-169 -138 -142 -165 0
-170 -137 -143 -164 0
-171 -136 -144 -163 0
-169 -139 -142 -166 0
-170 -140 -143 -167 0
-171 -141 -144 -168 0
-171 -170 0
-170 -169 0
-171 -169 0
169 170 171 0
-172 -3 -12 -165 0
-173 -2 -11 -164 0
-174 -1 -10 -163 0
-172 -6 -12 -166 0
-173 -5 -11 -167 0
-174 -4 -10 -168 0
-172 -9 -12 -169 0
-173 -8 -11 -170 0
-174 -7 -10 -171 0
-172 -30 -37 -165 0
-173 -29 -38 -164 0
-174 -28 -39 -163 0
-172 -31 -37 -166 0
-173 -32 -38 -167 0
-174 -33 -39 -168 0
-172 -34 -37 -169 0
-173 -35 -38 -170 0
-174 -36 -39 -171 0
-172 -57 -64 -165 0
-173 -56 -65 -164 0
-174 -55 -66 -163 0
-172 -58 -64 -166 0
-173 -59 -65 -167 0
-174 -60 -66 -168 0
-172 -61 -64 -169 0
-173 -62 -65 -170 0
-174 -63 -66 -171 0
-172 -84 -91 -165 0
-173 -83 -92 -164 0
-174 -82 -93 -163 0
-172 -85 -91 -166 0
-173 -86 -92 -167 0
-174 -87 -93 -168 0
-172 -88 -91 -169 0
-173 -89 -92 -170 0
-174 -90 -93 -171 0
-172 -111 -118 -165 0
-173 -110 -119 -164 0
-174 -109 -120 -163 0
-172 -112 -118 -166 0
-173 -113 -119 -167 0
-174 -114 -120 -168 0
-172 -115 -118 -169 0
-173 -116 -119 -170 0
-174 -117 -120 -171 0
-172 -138 -145 -165 0
-173 -137 -146 -164 0
-174 -136 -147 -163 0
-172 -139 -145 -166 0
-173 -140 -146 -167 0
-174 -141 -147 -168 0
-172 -142 -145 -169 0
-173 -143 -146 -170 0
-174 -144 -147 -171 0
-174 -173 0
-173 -172 0
-174 -172 0
172 173 174 0
-175 -3 -15 -165 0
-176 -2 -14 -164 0
-177 -1 -13 -163 0
-175 -6 -15 -166 0
-176 -5 -14 -167 0
-177 -4 -13 -168 0
-175 -9 -15 -169 0
-176 -8 -14 -170 0
-177 -7 -13 -171 0
-175 -12 -15 -172 0
-176 -11 -14 -173 0
-177 -10 -13 -174 0
-175 -30 -40 -165 0
-176 -29 -41 -164 0
-177 -28 -42 -163 0
-175 -31 -40 -166 0
-176 -32 -41 -167 0
-177 -33 -42 -168 0
-175 -34 -40 -169 0
-176 -35 -41 -170 0
-177 -36 -42 -171 0
-175 -37 -40 -172 0
-176 -38 -41 -173 0
-177 -39 -42 -174 0
-175 -57 -67 -165 0
-176 -56 -68 -164 0
-177 -55 -69 -163 0
-175 -58 -67 -166 0
-176 -59 -68 -167 0
-177 -60 -69 -168 0
-175 -61 -67 -169 0
-176 -62 -68 -170 0
-177 -63 -69 -171 0
-175 -64 -67 -172 0
-176 -65 -68 -173 0
-177 -66 -69 -174 0
-175 -84 -94 -165 0
-176 -83 -95 -164 0
-177 -82 -96 -163 0
-175 -85 -94 -166 0
-176 -86 -95 -167 0
-177 -87 -96 -168 0
-175 -88 -94 -169 0
-176 -89 -95 -170 0
-177 -90 -96 -171 0
-175 -91 -94 -172 0
-176 -92 -95 -173 0
-177 -93 -96 -174 0
-175 -111 -121 -165 0
-176 -110 -122 -164 0
-177 -109 -123 -163 0
-175 -112 -121 -166 0
-176 -113 -122 -167 0
-177 -114 -123 -168 0
-175 -115 -121 -169 0
-176 -116 -122 -170 0
-177 -117 -123 -171 0
-175 -118 -121 -172 0
-176 -119 -122 -173 0
-177 -120 -123 -174 0
-175 -138 -148 -165 0
-176 -137 -149 -164 0
-177 -136 -150 -163 0
-175 -139 -148 -166 0
-176 -140 -149 -167 0
-177 -141 -150 -168 0
-175 -142 -148 -169 0
-176 -143 -149 -170 0
-177 -144 -150 -171 0
-175 -145 -148 -172 0
-176 -146 -149 -173 0
-177 -147 -150 -174 0
-177 -176 0
-176 -175 0
-177 -175 0
175 176 177 0
-178 -3 -18 -165 0
-179 -2 -17 -164 0
-180 -1 -16 -163 0
-178 -6 -18 -166 0
-179 -5 -17 -167 0
-180 -4 -16 -168 0
-178 -9 -18 -169 0
-179 -8 -17 -170 0
-180 -7 -16 -171 0
-178 -12 -18 -172 0
-179 -11 -17 -173 0
-180 -10 -16 -174 0
-178 -15 -18 -175 0
-179 -14 -17 -176 0
-180 -13 -16 -177 0
-178 -30 -43 -165 0
-179 -29 -44 -164 0
-180 -28 -45 -163 0
-178 -31 -43 -166 0
-179 -32 -44 -167 0
-180 -33 -45 -168 0
-178 -34 -43 -169 0
-179 -35 -44 -170 0
-180 -36 -45 -171 0
-178 -37 -43 -172 0
-179 -38 -44 -173 0
-180 -39 -45 -174 0
-178 -40 -43 -175 0
-179 -41 -44 -176 0
-180 -42 -45 -177 0
-178 -57 -70 -165 0
-179 -56 -71 -164 0
-180 -55 -72 -163 0
-178 -58 -70 -166 0
-179 -59 -71 -167 0
-180 -60 -72 -168 0
-178 -61 -70 -169 0
-179 -62 -71 -170 0
-180 -63 -72 -171 0
-178 -64 -70 -172 0
-179 -65 -71 -173 0
-180 -66 -72 -174 0
-178 -67 -70 -175 0
-179 -68 -71 -176 0
-180 -69 -72 -177 0
-178 -84 -97 -165 0
-179 -83 -98 -164 0
-180 -82 -99 -163 0
-178 -85 -97 -166 0
-179 -86 -98 -167 0
-180 -87 -99 -168 0
-178 -88 -97 -169 0
-179 -89 -98 -170 0
-180 -90 -99 -171 0
-178 -91 -97 -172 0
-179 -92 -98 -173 0
-180 -93 -99 -174 0
-178 -94 -97 -175 0
-179 -95 -98 -176 0
-180 -96 -99 -177 0
-178 -111 -124 -165 0
-179 -110 -125 -164 0
-180 -109 -126 -163 0
-178 -112 -124 -166 0
-179 -113 -125 -167 0
-180 -114 -126 -168 0
-178 -115 -124 -169 0
-179 -116 -125 -170 0
-180 -117 -126 -171 0
-178 -118 -124 -172 0
-179 -119 -125 -173 0
-180 -120 -126 -174 0
-178 -121 -124 -175 0
-179 -122 -125 -176 0
-180 -123 -126 -177 0
-178 -138 -151 -165 0
-179 -137 -152 -164 0
-180 -136 -153 -163 0
-178 -139 -151 -166 0
-179 -140 -152 -167 0
-180 -141 -153 -168 0
-178 -142 -151 -169 0
-179 -143 -152 -170 0
-180 -144 -153 -171 0
-178 -145 -151 -172 0
-179 -146 -152 -173 0
-180 -147 -153 -174 0
-178 -148 -151 -175 0
-179 -149 -152 -176 0
-180 -150 -153 -177 0
-180 -179 0
-179 -178 0
-180 -178 0
178 179 180 0
-181 -3 -21 -165 0
-182 -2 -20 -164 0
-183 -1 -19 -163 0
-181 -6 -21 -166 0
-182 -5 -20 -167 0
-183 -4 -19 -168 0
-181 -9 -21 -169 0
-182 -8 -20 -170 0
-183 -7 -19 -171 0
-181 -12 -21 -172 0
-182 -11 -20 -173 0
-183 -10 -19 -174 0
-181 -15 -21 -175 0
-182 -14 -20 -176 0
-183 -13 -19 -177 0
-181 -18 -21 -178 0
-182 -17 -20 -179 0
-183 -16 -19 -180 0
-181 -30 -46 -165 0
-182 -29 -47 -164 0
-183 -28 -48 -163 0
-181 -31 -46 -166 0
-182 -32 -47 -167 0
-183 -33 -48 -168 0
-181 -34 -46 -169 0
-182 -35 -47 -170 0
-183 -36 -48 -171 0
-181 -37 -46 -172 0
-182 -38 -47 -173 0
-183 -39 -48 -174 0
-181 -40 -46 -175 0
-182 -41 -47 -176 0
-183 -42 -48 -177 0
-181 -43 -46 -178 0
-182 -44 -47 -179 0
-183 -45 -48 -180 0
-181 -57 -73 -165 0
-182 -56 -74 -164 0
-183 -55 -75 -163 0
-181 -58 -73 -166 0
-182 -59 -74 -167 0
-183 -60 -75 -168 0
-181 -61 -73 -169 0
-182 -62 -74 -170 0
-183 -63 -75 -171 0
-181 -64 -73 -172 0
-182 -65 -74 -173 0
-183 -66 -75 -174 0
-181 -67 -73 -175 0
-182 -68 -74 -176 0
-183 -69 -75 -177 0
-181 -70 -73 -178 0
-182 -71 -74 -179 0
-183 -72 -75 -180 0
-181 -84 -100 -165 0
-182 -83 -101 -164 0
-183 -82 -102 -163 0
-181 -85 -100 -166 0
-182 -86 -101 -167 0
-183 -87 -102 -168 0
-181 -88 -100 -169 0
-182 -89 -101 -170 0
-183 -90 -102 -171 0
-181 -91 -100 -172 0
-182 -92 -101 -173 0
-183 -93 -102 -174 0
-181 -94 -100 -175 0
-182 -95 -101 -176 0
-183 -96 -102 -177 0
-181 -97 -100 -178 0
-182 -98 -101 -179 0
-183 -99 -102 -180 0
-181 -111 -127 -165 0
-182 -110 -128 -164 0
-183 -109 -129 -163 0
-181 -112 -127 -166 0
-182 -113 -128 -167 0
-183 -114 -129 -168 0
-181 -115 -127 -169 0
-182 -116 -128 -170 0
-183 -117 -129 -171 0
-181 -118 -127 -172 0
-182 -119 -128 -173 0
-183 -120 -129 -174 0
-181 -121 -127 -175 0
-182 -122 -128 -176 0
-183 -123 -129 -177 0
-181 -124 -127 -178 0
-182 -125 -128 -179 0
-183 -126 -129 -180 0
-181 -138 -154 -165 0
-182 -137 -155 -164 0
-183 -136 -156 -163 0
-181 -139 -154 -166 0
-182 -140 -155 -167 0
-183 -141 -156 -168 0
-181 -142 -154 -169 0
-182 -143 -155 -170 0
-183 -144 -156 -171 0
-181 -145 -154 -172 0
-182 -146 -155 -173 0
-183 -147 -156 -174 0
-181 -148 -154 -175 0
-182 -149 -155 -176 0
-183 -150 -156 -177 0
-181 -151 -154 -178 0
-182 -152 -155 -179 0
-183 -153 -156 -180 0
-183 -182 0
-182 -181 0
-183 -181 0
181 182 183 0
-184 -3 -24 -165 0
-185 -2 -23 -164 0
-186 -1 -22 -163 0
-184 -6 -24 -166 0
-185 -5 -23 -167 0
-186 -4 -22 -168 0
-184 -9 -24 -169 0
-185 -8 -23 -170 0
-186 -7 -22 -171 0
-184 -12 -24 -172 0
-185 -11 -23 -173 0
-186 -10 -22 -174 0
-184 -15 -24 -175 0
-185 -14 -23 -176 0
-186 -13 -22 -177 0
-184 -18 -24 -178 0
-185 -17 -23 -179 0
-186 -16 -22 -180 0
-184 -21 -24 -181 0
-185 -20 -23 -182 0
-186 -19 -22 -183 0
-184 -30 -49 -165 0
-185 -29 -50 -164 0
-186 -28 -51 -163 0
-184 -31 -49 -166 0
-185 -32 -50 -167 0
-186 -33 -51 -168 0
-184 -34 -49 -169 0
-185 -35 -50 -170 0
-186 -36 -51 -171 0
-184 -37 -49 -172 0
-185 -38 -50 -173 0
-186 -39 -51 -174 0
-184 -40 -49 -175 0
-185 -41 -50 -176 0
-186 -42 -51 -177 0
-184 -43 -49 -178 0
-185 -44 -50 -179 0
-186 -45 -51 -180 0
-184 -46 -49 -181 0
-185 -47 -50 -182 0
-186 -48 -51 -183 0
-184 -57 -76 -165 0
-185 -56 -77 -164 0
-186 -55 -78 -163 0
-184 -58 -76 -166 0
-185 -59 -77 -167 0
-186 -60 -78 -168 0
-184 -61 -76 -169 0
-185 -62 -77 -170 0
-186 -63 -78 -171 0
-184 -64 -76 -172 0
-185 -65 -77 -173 0
-186 -66 -78 -174 0
-184 -67 -76 -175 0
-185 -68 -77 -176 0
-186 -69 -78 -177 0
-184 -70 -76 -178 0
-185 -71 -77 -179 0
-186 -72 -78 -180 0
-184 -73 -76 -181 0
-185 -74 -77 -182 0
-186 -75 -78 -183 0
-184 -84 -103 -165 0
-185 -83 -104 -164 0
-186 -82 -105 -163 0
-184 -85 -103 -166 0
-185 -86 -104 -167 0
-186 -87 -105 -168 0
-184 -88 -103 -169 0
-185 -89 -104 -170 0
-186 -90 -105 -171 0
-184 -91 -103 -172 0
-185 -92 -104 -173 0
-186 -93 -105 -174 0
-184 -94 -103 -175 0
-185 -95 -104 -176 0
-186 -96 -105 -177 0
-184 -97 -103 -178 0
-185 -98 -104 -179 0
-186 -99 -105 -180 0
-184 -100 -103 -181 0
-185 -101 -104 -182 0
-186 -102 -105 -183 0
-184 -111 -130 -165 0
-185 -110 -131 -164 0
-186 -109 -132 -163 0
-184 -112 -130 -166 0
-185 -113 -131 -167 0
-186 -114 -132 -168 0
-184 -115 -130 -169 0
-185 -116 -131 -170 0
-186 -117 -132 -171 0
-184 -118 -130 -172 0
-185 -119 -131 -173 0
-186 -120 -132 -174 0
-184 -121 -130 -175 0
-185 -122 -131 -176 0
-186 -123 -132 -177 0
-184 -124 -130 -178 0
-185 -125 -131 -179 0
-186 -126 -132 -180 0
-184 -127 -130 -181 0
-185 -128 -131 -182 0
-186 -129 -132 -183 0
-184 -138 -157 -165 0
-185 -137 -158 -164 0
-186 -136 -159 -163 0
-184 -139 -157 -166 0
-185 -140 -158 -167 0
-186 -141 -159 -168 0
-184 -142 -157 -169 0
-185 -143 -158 -170 0
-186 -144 -159 -171 0
-184 -145 -157 -172 0
-185 -146 -158 -173 0
-186 -147 -159 -174 0
-184 -148 -157 -175 0
-185 -149 -158 -176 0
-186 -150 -159 -177 0
-184 -151 -157 -178 0
-185 -152 -158 -179 0
-186 -153 -159 -180 0
-184 -154 -157 -181 0
-185 -155 -158 -182 0
-186 -156 -159 -183 0
-186 -185 0
-185 -184 0
-186 -184 0
184 185 186 0
-187 -3 -27 -165 0
-188 -2 -26 -164 0
-189 -1 -25 -163 0
-187 -6 -27 -166 0
-188 -5 -26 -167 0
-189 -4 -25 -168 0
-187 -9 -27 -169 0
-188 -8 -26 -170 0
-189 -7 -25 -171 0
-187 -12 -27 -172 0
-188 -11 -26 -173 0
-189 -10 -25 -174 0
-187 -15 -27 -175 0
-188 -14 -26 -176 0
-189 -13 -25 -177 0
-187 -18 -27 -178 0
-188 -17 -26 -179 0
-189 -16 -25 -180 0
-187 -21 -27 -181 0
-188 -20 -26 -182 0
-189 -19 -25 -183 0
-187 -24 -27 -184 0
-188 -23 -26 -185 0
-189 -22 -25 -186 0
-187 -30 -52 -165 0
-188 -29 -53 -164 0
-189 -28 -54 -163 0
-187 -31 -52 -166 0
-188 -32 -53 -167 0
-189 -33 -54 -168 0
-187 -34 -52 -169 0
-188 -35 -53 -170 0
-189 -36 -54 -171 0
-187 -37 -52 -172 0
-188 -38 -53 -173 0
-189 -39 -54 -174 0
-187 -40 -52 -175 0
-188 -41 -53 -176 0
-189 -42 -54 -177 0
-187 -43 -52 -178 0
-188 -44 -53 -179 0
-189 -45 -54 -180 0
-187 -46 -52 -181 0
-188 -47 -53 -182 0
-189 -48 -54 -183 0
-187 -49 -52 -184 0
-188 -50 -53 -185 0
-189 -51 -54 -186 0
-187 -57 -79 -165 0
-188 -56 -80 -164 0
-189 -55 -81 -163 0
-187 -58 -79 -166 0
-188 -59 -80 -167 0
-189 -60 -81 -168 0
-187 -61 -79 -169 0
-188 -62 -80 -170 0
-189 -63 -81 -171 0
-187 -64 -79 -172 0
-188 -65 -80 -173 0
-189 -66 -81 -174 0
-187 -67 -79 -175 0
-188 -68 -80 -176 0
-189 -69 -81 -177 0
-187 -70 -79 -178 0
-188 -71 -80 -179 0
-189 -72 -81 -180 0
-187 -73 -79 -181 0
-188 -74 -80 -182 0
-189 -75 -81 -183 0
-187 -76 -79 -184 0
-188 -77 -80 -185 0
-189 -78 -81 -186 0
-187 -84 -106 -165 0
-188 -83 -107 -164 0
-189 -82 -108 -163 0
-187 -85 -106 -166 0
-188 -86 -107 -167 0
-189 -87 -108 -168 0
-187 -88 -106 -169 0
-188 -89 -107 -170 0
-189 -90 -108 -171 0
-187 -91 -106 -172 0
-188 -92 -107 -173 0
-189 -93 -108 -174 0
-187 -94 -106 -175 0
-188 -95 -107 -176 0
-189 -96 -108 -177 0
-187 -97 -106 -178 0
-188 -98 -107 -179 0
-189 -99 -108 -180 0
-187 -100 -106 -181 0
-188 -101 -107 -182 0
-189 -102 -108 -183 0
-187 -103 -106 -184 0
-188 -104 -107 -185 0
-189 -105 -108 -186 0
-187 -111 -133 -165 0
-188 -110 -134 -164 0
-189 -109 -135 -163 0
-187 -112 -133 -166 0
-188 -113 -134 -167 0
-189 -114 -135 -168 0
-187 -115 -133 -169 0
-188 -116 -134 -170 0
-189 -117 -135 -171 0
-187 -118 -133 -172 0
-188 -119 -134 -173 0
-189 -120 -135 -174 0
-187 -121 -133 -175 0
-188 -122 -134 -176 0
-189 -123 -135 -177 0
-187 -124 -133 -178 0
-188 -125 -134 -179 0
-189 -126 -135 -180 0
-187 -127 -133 -181 0
-188 -128 -134 -182 0
-189 -129 -135 -183 0
-187 -130 -133 -184 0
-188 -131 -134 -185 0
-189 -132 -135 -186 0
-187 -138 -160 -165 0
-188 -137 -161 -164 0
-189 -136 -162 -163 0
-187 -139 -160 -166 0
-188 -140 -161 -167 0
-189 -141 -162 -168 0
-187 -142 -160 -169 0
-188 -143 -161 -170 0
-189 -144 -162 -171 0
-187 -145 -160 -172 0
-188 -146 -161 -173 0
-189 -147 -162 -174 0
-187 -148 -160 -175 0
-188 -149 -161 -176 0
-189 -150 -162 -177 0
-187 -151 -160 -178 0
-188 -152 -161 -179 0
-189 -153 -162 -180 0
-187 -154 -160 -181 0
-188 -155 -161 -182 0
-189 -156 -162 -183 0
-187 -157 -160 -184 0
-188 -158 -161 -185 0
-189 -159 -162 -186 0
-189 -188 0
-188 -187 0
-189 -187 0
187 188 189 0
-190 -191 0
-191 -192 0
-190 -192 0
192 191 190 0
-193 -3 -6 -192 0
-194 -2 -5 -191 0
-195 -1 -4 -190 0
-193 -30 -31 -192 0
-194 -29 -32 -191 0
-195 -28 -33 -190 0
-193 -57 -58 -192 0
-194 -56 -59 -191 0
-195 -55 -60 -190 0
-193 -84 -85 -192 0
-194 -83 -86 -191 0
-195 -82 -87 -190 0
-193 -111 -112 -192 0
-194 -110 -113 -191 0
-195 -109 -114 -190 0
-193 -138 -139 -192 0
-194 -137 -140 -191 0
-195 -136 -141 -190 0
-193 -165 -166 -192 0
-194 -164 -167 -191 0
-195 -163 -168 -190 0
-195 -194 0
-194 -193 0
-195 -193 0
193 194 195 0
-196 -3 -9 -192 0
-197 -2 -8 -191 0
-198 -1 -7 -190 0
-196 -6 -9 -193 0
-197 -5 -8 -194 0
-198 -4 -7 -195 0
-196 -30 -34 -192 0
-197 -29 -35 -191 0
-198 -28 -36 -190 0
-196 -31 -34 -193 0
-197 -32 -35 -194 0
-198 -33 -36 -195 0
-196 -57 -61 -192 0
-197 -56 -62 -191 0
-198 -55 -63 -190 0
-196 -58 -61 -193 0
-197 -59 -62 -194 0
-198 -60 -63 -195 0
-196 -84 -88 -192 0
-197 -83 -89 -191 0
-198 -82 -90 -190 0
-196 -85 -88 -193 0
-197 -86 -89 -194 0
-198 -87 -90 -195 0
-196 -111 -115 -192 0
-197 -110 -116 -191 0
-198 -109 -117 -190 0
-196 -112 -115 -193 0
-197 -113 -116 -194 0
-198 -114 -117 -195 0
-196 -138 -142 -192 0
-197 -137 -143 -191 0
-198 -136 -144 -190 0
-196 -139 -142 -193 0
-197 -140 -143 -194 0
-198 -141 -144 -195 0
-196 -165 -169 -192 0
-197 -164 -170 -191 0
-198 -163 -171 -190 0
-196 -166 -169 -193 0
-197 -167 -170 -194 0
-198 -168 -171 -195 0
-198 -197 0
-197 -196 0
-198 -196 0
196 197 198 0
-199 -3 -12 -192 0
-200 -2 -11 -191 0
-201 -1 -10 -190 0
-199 -6 -12 -193 0
-200 -5 -11 -194 0
-201 -4 -10 -195 0
-199 -9 -12 -196 0
-200 -8 -11 -197 0
-201 -7 -10 -198 0
-199 -30 -37 -192 0
-200 -29 -38 -191 0
-201 -28 -39 -190 0
-199 -31 -37 -193 0
-200 -32 -38 -194 0
-201 -33 -39 -195 0
-199 -34 -37 -196 0
-200 -35 -38 -197 0
-201 -36 -39 -198 0
-199 -57 -64 -192 0
-200 -56 -65 -191 0
-201 -55 -66 -190 0
-199 -58 -64 -193 0
-200 -59 -65 -194 0
-201 -60 -66 -195 0
-199 -61 -64 -196 0
-200 -62 -65 -197 0
-201 -63 -66 -198 0
-199 -84 -91 -192 0
-200 -83 -92 -191 0
-201 -82 -93 -190 0
-199 -85 -91 -193 0
-200 -86 -92 -194 0
-201 -87 -93 -195 0
-199 -88 -91 -196 0
-200 -89 -92 -197 0
-201 -90 -93 -198 0
-199 -111 -118 -192 0
-200 -110 -119 -191 0
-201 -109 -120 -190 0
-199 -112 -118 -193 0
-200 -113 -119 -194 0
-201 -114 -120 -195 0
-199 -115 -118 -196 0
-200 -116 -119 -197 0
-201 -117 -120 -198 0
-199 -138 -145 -192 0
-200 -137 -146 -191 0
-201 -136 -147 -190 0
-199 -139 -145 -193 0
-200 -140 -146 -194 0
-201 -141 -147 -195 0
-199 -142 -145 -196 0
-200 -143 -146 -197 0
-201 -144 -147 -198 0
-199 -165 -172 -192 0
-200 -164 -173 -191 0
-201 -163 -174 -190 0
-199 -166 -172 -193 0
-200 -167 -173 -194 0
-201 -168 -174 -195 0
-199 -169 -172 -196 0
-200 -170 -173 -197 0
-201 -171 -174 -198 0
-201 -200 0
-200 -199 0
-201 -199 0
199 200 201 0
-202 -3 -15 -192 0
-203 -2 -14 -191 0
-204 -1 -13 -190 0
-202 -6 -15 -193 0
-203 -5 -14 -194 0
-204 -4 -13 -195 0
-202 -9 -15 -196 0
-203 -8 -14 -197 0
-204 -7 -13 -198 0
-202 -12 -15 -199 0
-203 -11 -14 -200 0
-204 -10 -13 -201 0
-202 -30 -40 -192 0
-203 -29 -41 -191 0
-204 -28 -42 -190 0
-202 -31 -40 -193 0
-203 -32 -41 -194 0
-204 -33 -42 -195 0
-202 -34 -40 -196 0
-203 -35 -41 -197 0
-204 -36 -42 -198 0
-202 -37 -40 -199 0
-203 -38 -41 -200 0
-204 -39 -42 -201 0
-202 -57 -67 -192 0
-203 -56 -68 -191 0
-204 -55 -69 -190 0
-202 -58 -67 -193 0
-203 -59 -68 -194 0
-204 -60 -69 -195 0
-202 -61 -67 -196 0
-203 -62 -68 -197 0
-204 -63 -69 -198 0
-202 -64 -67 -199 0
-203 -65 -68 -200 0
-204 -66 -69 -201 0
-202 -84 -94 -192 0
-203 -83 -95 -191 0
-204 -82 -96 -190 0
-202 -85 -94 -193 0
-203 -86 -95 -194 0
-204 -87 -96 -195 0
-202 -88 -94 -196 0
-203 -89 -95 -197 0
-204 -90 -96 -198 0
-202 -91 -94 -199 0
-203 -92 -95 -200 0
-204 -93 -96 -201 0
-202 -111 -121 -192 0
-203 -110 -122 -191 0
-204 -109 -123 -190 0
-202 -112 -121 -193 0
-203 -113 -122 -194 0
-204 -114 -123 -195 0
-202 -115 -121 -196 0
-203 -116 -122 -197 0
-204 -117 -123 -198 0
-202 -118 -121 -199 0
-203 -119 -122 -200 0
-204 -120 -123 -201 0
-202 -138 -148 -192 0
-203 -137 -149 -191 0
-204 -136 -150 -190 0
-202 -139 -148 -193 0
-203 -140 -149 -194 0
-204 -141 -150 -195 0
-202 -142 -148 -196 0
-203 -143 -149 -197 0
-204 -144 -150 -198 0
-202 -145 -148 -199 0
-203 -146 -149 -200 0
-204 -147 -150 -201 0
-202 -165 -175 -192 0
-203 -164 -176 -191 0
-204 -163 -177 -190 0
-202 -166 -175 -193 0
-203 -167 -176 -194 0
-204 -168 -177 -195 0
-202 -169 -175 -196 0
-203 -170 -176 -197 0
-204 -171 -177 -198 0
-202 -172 -175 -199 0
-203 -173 -176 -200 0
-204 -174 -177 -201 0
-204 -203 0
-203 -202 0
-204 -202 0
202 203 204 0
-205 -3 -18 -192 0
-206 -2 -17 -191 0
-207 -1 -16 -190 0
-205 -6 -18 -193 0
-206 -5 -17 -194 0
-207 -4 -16 -195 0
-205 -9 -18 -196 0
-206 -8 -17 -197 0
-207 -7 -16 -198 0
-205 -12 -18 -199 0
-206 -11 -17 -200 0
-207 -10 -16 -201 0
-205 -15 -18 -202 0
-206 -14 -17 -203 0
-207 -13 -16 -204 0
-205 -30 -43 -192 0
-206 -29 -44 -191 0
-207 -28 -45 -190 0
-205 -31 -43 -193 0
-206 -32 -44 -194 0
-207 -33 -45 -195 0
-205 -34 -43 -196 0
-206 -35 -44 -197 0
-207 -36 -45 -198 0
-205 -37 -43 -199 0
-206 -38 -44 -200 0
-207 -39 -45 -201 0
-205 -40 -43 -202 0
-206 -41 -44 -203 0
-207 -42 -45 -204 0
-205 -57 -70 -192 0
-206 -56 -71 -191 0
-207 -55 -72 -190 0
-205 -58 -70 -193 0
-206 -59 -71 -194 0
-207 -60 -72 -195 0
-205 -61 -70 -196 0
-206 -62 -71 -197 0
-207 -63 -72 -198 0
-205 -64 -70 -199 0
-206 -65 -71 -200 0
-207 -66 -72 -201 0
-205 -67 -70 -202 0
-206 -68 -71 -203 0
-207 -69 -72 -204 0
-205 -84 -97 -192 0
-206 -83 -98 -191 0
-207 -82 -99 -190 0
-205 -85 -97 -193 0
-206 -86 -98 -194 0
-207 -87 -99 -195 0
-205 -88 -97 -196 0
-206 -89 -98 -197 0
-207 -90 -99 -198 0
-205 -91 -97 -199 0
-206 -92 -98 -200 0
-207 -93 -99 -201 0
-205 -94 -97 -202 0
-206 -95 -98 -203 0
-207 -96 -99 -204 0
-205 -111 -124 -192 0
-206 -110 -125 -191 0
-207 -109 -126 -190 0
-205 -112 -124 -193 0
-206 -113 -125 -194 0
-207 -114 -126 -195 0
-205 -115 -124 -196 0
-206 -116 -125 -197 0
-207 -117 -126 -198 0
-205 -118 -124 -199 0
-206 -119 -125 -200 0
-207 -120 -126 -201 0
-205 -121 -124 -202 0
-206 -122 -125 -203 0
-207 -123 -126 -204 0
-205 -138 -151 -192 0
-206 -137 -152 -191 0
-207 -136 -153 -190 0
-205 -139 -151 -193 0
-206 -140 -152 -194 0
-207 -141 -153 -195 0
-205 -142 -151 -196 0
-206 -143 -152 -197 0
-207 -144 -153 -198 0
-205 -145 -151 -199 0
-206 -146 -152 -200 0
-207 -147 -153 -201 0
-205 -148 -151 -202 0
-206 -149 -152 -203 0
-207 -150 -153 -204 0
-205 -165 -178 -192 0
-206 -164 -179 -191 0
-207 -163 -180 -190 0
-205 -166 -178 -193 0
-206 -167 -179 -194 0
-207 -168 -180 -195 0
-205 -169 -178 -196 0
-206 -170 -179 -197 0
-207 -171 -180 -198 0
-205 -172 -178 -199 0
-206 -173 -179 -200 0
-207 -174 -180 -201 0
-205 -175 -178 -202 0
-206 -176 -179 -203 0
-207 -177 -180 -204 0
-207 -206 0
-206 -205 0
-207 -205 0
205 206 207 0
-208 -3 -21 -192 0
-209 -2 -20 -191 0
-210 -1 -19 -190 0
-208 -6 -21 -193 0
-209 -5 -20 -194 0
-210 -4 -19 -195 0
-208 -9 -21 -196 0
-209 -8 -20 -197 0
-210 -7 -19 -198 0
-208 -12 -21 -199 0
-209 -11 -20 -200 0
-210 -10 -19 -201 0
-208 -15 -21 -202 0
-209 -14 -20 -203 0
-210 -13 -19 -204 0
-208 -18 -21 -205 0
-209 -17 -20 -206 0
-210 -16 -19 -207 0
-208 -30 -46 -192 0
-209 -29 -47 -191 0
-210 -28 -48 -190 0
-208 -31 -46 -193 0
-209 -32 -47 -194 0
-210 -33 -48 -195 0
-208 -34 -46 -196 0
-209 -35 -47 -197 0
-210 -36 -48 -198 0
-208 -37 -46 -199 0
-209 -38 -47 -200 0
-210 -39 -48 -201 0
-208 -40 -46 -202 0
-209 -41 -47 -203 0
-210 -42 -48 -204 0
-208 -43 -46 -205 0
-209 -44 -47 -206 0
-210 -45 -48 -207 0
-208 -57 -73 -192 0
-209 -56 -74 -191 0
-210 -55 -75 -190 0
-208 -58 -73 -193 0
-209 -59 -74 -194 0
-210 -60 -75 -195 0
-208 -61 -73 -196 0
-209 -62 -74 -197 0
-210 -63 -75 -198 0
-208 -64 -73 -199 0
-209 -65 -74 -200 0
-210 -66 -75 -201 0
-208 -67 -73 -202 0
-209 -68 -74 -203 0
-210 -69 -75 -204 0
-208 -70 -73 -205 0
-209 -71 -74 -206 0
-210 -72 -75 -207 0
-208 -84 -100 -192 0
-209 -83 -101 -191 0
-210 -82 -102 -190 0
-208 -85 -100 -193 0
-209 -86 -101 -194 0
-210 -87 -102 -195 0
-208 -88 -100 -196 0
-209 -89 -101 -197 0
-210 -90 -102 -198 0
-208 -91 -100 -199 0
-209 -92 -101 -200 0
-210 -93 -102 -201 0
-208 -94 -100 -202 0
-209 -95 -101 -203 0
-210 -96 -102 -204 0
-208 -97 -100 -205 0
-209 -98 -101 -206 0
-210 -99 -102 -207 0
-208 -111 -127 -192 0
-209 -110 -128 -191 0
-210 -109 -129 -190 0
-208 -112 -127 -193 0
-209 -113 -128 -194 0
-210 -114 -129 -195 0
-208 -115 -127 -196 0
-209 -116 -128 -197 0
-210 -117 -129 -198 0
-208 -118 -127 -199 0
-209 -119 -128 -200 0
-210 -120 -129 -201 0
-208 -121 -127 -202 0
-209 -122 -128 -203 0
-210 -123 -129 -204 0
-208 -124 -127 -205 0
-209 -125 -128 -206 0
-210 -126 -129 -207 0
-208 -138 -154 -192 0
-209 -137 -155 -191 0
-210 -136 -156 -190 0
-208 -139 -154 -193 0
-209 -140 -155 -194 0
-210 -141 -156 -195 0
-208 -142 -154 -196 0
-209 -143 -155 -197 0
-210 -144 -156 -198 0
-208 -145 -154 -199 0
-209 -146 -155 -200 0
-210 -147 -156 -201 0
-208 -148 -154 -202 0
-209 -149 -155 -203 0
-210 -150 -156 -204 0
-208 -151 -154 -205 0
-209 -152 -155 -206 0
-210 -153 -156 -207 0
-208 -165 -181 -192 0
-209 -164 -182 -191 0
-210 -163 -183 -190 0
-208 -166 -181 -193 0
-209 -167 -182 -194 0
-210 -168 -183 -195 0
-208 -169 -181 -196 0
-209 -170 -182 -197 0
-210 -171 -183 -198 0
-208 -172 -181 -199 0
-209 -173 -182 -200 0
-210 -174 -183 -201 0
-208 -175 -181 -202 0
-209 -176 -182 -203 0
-210 -177 -183 -204 0
-208 -178 -181 -205 0
-209 -179 -182 -206 0
-210 -180 -183 -207 0
-210 -209 0
-209 -208 0
-210 -208 0
208 209 210 0
-211 -3 -24 -192 0
-212 -2 -23 -191 0
-213 -1 -22 -190 0
-211 -6 -24 -193 0
-212 -5 -23 -194 0
-213 -4 -22 -195 0
-211 -9 -24 -196 0
-212 -8 -23 -197 0
-213 -7 -22 -198 0
-211 -12 -24 -199 0
-212 -11 -23 -200 0
-213 -10 -22 -201 0
-211 -15 -24 -202 0
-212 -14 -23 -203 0
-213 -13 -22 -204 0
-211 -18 -24 -205 0
-212 -17 -23 -206 0
-213 -16 -22 -207 0
-211 -21 -24 -208 0
-212 -20 -23 -209 0
-213 -19 -22 -210 0
-211 -30 -49 -192 0
-212 -29 -50 -191 0
-213 -28 -51 -190 0
-211 -31 -49 -193 0
-212 -32 -50 -194 0
-213 -33 -51 -195 0
-211 -34 -49 -196 0
-212 -35 -50 -197 0
-213 -36 -51 -198 0
-211 -37 -49 -199 0
-212 -38 -50 -200 0
-213 -39 -51 -201 0
-211 -40 -49 -202 0
-212 -41 -50 -203 0
-213 -42 -51 -204 0
-211 -43 -49 -205 0
-212 -44 -50 -206 0
-213 -45 -51 -207 0
-211 -46 -49 -208 0
-212 -47 -50 -209 0
-213 -48 -51 -210 0
-211 -57 -76 -192 0
-212 -56 -77 -191 0
-213 -55 -78 -190 0
-211 -58 -76 -193 0
-212 -59 -77 -194 0
-213 -60 -78 -195 0
-211 -61 -76 -196 0
-212 -62 -77 -197 0
-213 -63 -78 -198 0
-211 -64 -76 -199 0
-212 -65 -77 -200 0
-213 -66 -78 -201 0
-211 -67 -76 -202 0
-212 -68 -77 -203 0
-213 -69 -78 -204 0
-211 -70 -76 -205 0
-212 -71 -77 -206 0
-213 -72 -78 -207 0
-211 -73 -76 -208 0
-212 -74 -77 -209 0
-213 -75 -78 -210 0
-211 -84 -103 -192 0
-212 -83 -104 -191 0
-213 -82 -105 -190 0
-211 -85 -103 -193 0
-212 -86 -104 -194 0
-213 -87 -105 -195 0
-211 -88 -103 -196 0
-212 -89 -104 -197 0
-213 -90 -105 -198 0
-211 -91 -103 -199 0
-212 -92 -104 -200 0
-213 -93 -105 -201 0
-211 -94 -103 -202 0
-212 -95 -104 -203 0
-213 -96 -105 -204 0
-211 -97 -103 -205 0
-212 -98 -104 -206 0
-213 -99 -105 -207 0
-211 -100 -103 -208 0
-212 -101 -104 -209 0
-213 -102 -105 -210 0
-211 -111 -130 -192 0
-212 -110 -131 -191 0
-213 -109 -132 -190 0
-211 -112 -130 -193 0
-212 -113 -131 -194 0
-213 -114 -132 -195 0
-211 -115 -130 -196 0
-212 -116 -131 -197 0
-213 -117 -132 -198 0
-211 -118 -130 -199 0
-212 -119 -131 -200 0
-213 -120 -132 -201 0
-211 -121 -130 -202 0
-212 -122 -131 -203 0
-213 -123 -132 -204 0
-211 -124 -130 -205 0
-212 -125 -131 -206 0
-213 -126 -132 -207 0
-211 -127 -130 -208 0
-212 -128 -131 -209 0
-213 -129 -132 -210 0
-211 -138 -157 -192 0
-212 -137 -158 -191 0
-213 -136 -159 -190 0
-211 -139 -157 -193 0
-212 -140 -158 -194 0
-213 -141 -159 -195 0
-211 -142 -157 -196 0
-212 -143 -158 -197 0
-213 -144 -159 -198 0
-211 -145 -157 -199 0
-212 -146 -158 -200 0
-213 -147 -159 -201 0
-211 -148 -157 -202 0
-212 -149 -158 -203 0
-213 -150 -159 -204 0
-211 -151 -157 -205 0
-212 -152 -158 -206 0
-213 -153 -159 -207 0
-211 -154 -157 -208 0
-212 -155 -158 -209 0
-213 -156 -159 -210 0
-211 -165 -184 -192 0
-212 -164 -185 -191 0
-213 -163 -186 -190 0
-211 -166 -184 -193 0
-212 -167 -185 -194 0
-213 -168 -186 -195 0
-211 -169 -184 -196 0
-212 -170 -185 -197 0
-213 -171 -186 -198 0
-211 -172 -184 -199 0
-212 -173 -185 -200 0
-213 -174 -186 -201 0
-211 -175 -184 -202 0
-212 -176 -185 -203 0
-213 -177 -186 -204 0
-211 -178 -184 -205 0
-212 -179 -185 -206 0
-213 -180 -186 -207 0
-211 -181 -184 -208 0
-212 -182 -185 -209 0
-213 -183 -186 -210 0
-213 -212 0
-212 -211 0
-213 -211 0
211 212 213 0
-214 -3 -27 -192 0
-215 -2 -26 -191 0
-216 -1 -25 -190 0
-214 -6 -27 -193 0
-215 -5 -26 -194 0
-216 -4 -25 -195 0
-214 -9 -27 -196 0
-215 -8 -26 -197 0
-216 -7 -25 -198 0
-214 -12 -27 -199 0
-215 -11 -26 -200 0
-216 -10 -25 -201 0
-214 -15 -27 -202 0
-215 -14 -26 -203 0
-216 -13 -25 -204 0
-214 -18 -27 -205 0
-215 -17 -26 -206 0
-216 -16 -25 -207 0
-214 -21 -27 -208 0
-215 -20 -26 -209 0
-216 -19 -25 -210 0
-214 -24 -27 -211 0
-215 -23 -26 -212 0
-216 -22 -25 -213 0
-214 -30 -52 -192 0
-215 -29 -53 -191 0
-216 -28 -54 -190 0
-214 -31 -52 -193 0
-215 -32 -53 -194 0
-216 -33 -54 -195 0
-214 -34 -52 -196 0
-215 -35 -53 -197 0
-216 -36 -54 -198 0
-214 -37 -52 -199 0
-215 -38 -53 -200 0
-216 -39 -54 -201 0
-214 -40 -52 -202 0
-215 -41 -53 -203 0
-216 -42 -54 -204 0
-214 -43 -52 -205 0
-215 -44 -53 -206 0
-216 -45 -54 -207 0
-214 -46 -52 -208 0
-215 -47 -53 -209 0
-216 -48 -54 -210 0
-214 -49 -52 -211 0
-215 -50 -53 -212 0
-216 -51 -54 -213 0
-214 -57 -79 -192 0
-215 -56 -80 -191 0
-216 -55 -81 -190 0
-214 -58 -79 -193 0
-215 -59 -80 -194 0
-216 -60 -81 -195 0
-214 -61 -79 -196 0
-215 -62 -80 -197 0
-216 -63 -81 -198 0
-214 -64 -79 -199 0
-215 -65 -80 -200 0
-216 -66 -81 -201 0
-214 -67 -79 -202 0
-215 -68 -80 -203 0
-216 -69 -81 -204 0
-214 -70 -79 -205 0
-215 -71 -80 -206 0
-216 -72 -81 -207 0
-214 -73 -79 -208 0
-215 -74 -80 -209 0
-216 -75 -81 -210 0
-214 -76 -79 -211 0
-215 -77 -80 -212 0
-216 -78 -81 -213 0
-214 -84 -106 -192 0
-215 -83 -107 -191 0
-216 -82 -108 -190 0
-214 -85 -106 -193 0
-215 -86 -107 -194 0
-216 -87 -108 -195 0
-214 -88 -106 -196 0
-215 -89 -107 -197 0
-216 -90 -108 -198 0
-214 -91 -106 -199 0
-215 -92 -107 -200 0
-216 -93 -108 -201 0
-214 -94 -106 -202 0
-215 -95 -107 -203 0
-216 -96 -108 -204 0
-214 -97 -106 -205 0
-215 -98 -107 -206 0
-216 -99 -108 -207 0
-214 -100 -106 -208 0
-215 -101 -107 -209 0
-216 -102 -108 -210 0
-214 -103 -106 -211 0
-215 -104 -107 -212 0
-216 -105 -108 -213 0
-214 -111 -133 -192 0
-215 -110 -134 -191 0
-216 -109 -135 -190 0
-214 -112 -133 -193 0
-215 -113 -134 -194 0
-216 -114 -135 -195 0
-214 -115 -133 -196 0
-215 -116 -134 -197 0
-216 -117 -135 -198 0
-214 -118 -133 -199 0
-215 -119 -134 -200 0
-216 -120 -135 -201 0
-214 -121 -133 -202 0
-215 -122 -134 -203 0
-216 -123 -135 -204 0
-214 -124 -133 -205 0
-215 -125 -134 -206 0
-216 -126 -135 -207 0
-214 -127 -133 -208 0
-215 -128 -134 -209 0
-216 -129 -135 -210 0
-214 -130 -133 -211 0
-215 -131 -134 -212 0
-216 -132 -135 -213 0
-214 -138 -160 -192 0
-215 -137 -161 -191 0
-216 -136 -162 -190 0
-214 -139 -160 -193 0
-215 -140 -161 -194 0
-216 -141 -162 -195 0
-214 -142 -160 -196 0
-215 -143 -161 -197 0
-216 -144 -162 -198 0
-214 -145 -160 -199 0
-215 -146 -161 -200 0
-216 -147 -162 -201 0
-214 -148 -160 -202 0
-215 -149 -161 -203 0
-216 -150 -162 -204 0
-214 -151 -160 -205 0
-215 -152 -161 -206 0
-216 -153 -162 -207 0
-214 -154 -160 -208 0
-215 -155 -161 -209 0
-216 -156 -162 -210 0
-214 -157 -160 -211 0
-215 -158 -161 -212 0
-216 -159 -162 -213 0
-214 -165 -187 -192 0
-215 -164 -188 -191 0
-216 -163 -189 -190 0
-214 -166 -187 -193 0
-215 -167 -188 -194 0
-216 -168 -189 -195 0
-214 -169 -187 -196 0
-215 -170 -188 -197 0
-216 -171 -189 -198 0
-214 -172 -187 -199 0
-215 -173 -188 -200 0
-216 -174 -189 -201 0
-214 -175 -187 -202 0
-215 -176 -188 -203 0
-216 -177 -189 -204 0
-214 -178 -187 -205 0
-215 -179 -188 -206 0
-216 -180 -189 -207 0
-214 -181 -187 -208 0
-215 -182 -188 -209 0
-216 -183 -189 -210 0
-214 -184 -187 -211 0
-215 -185 -188 -212 0
-216 -186 -189 -213 0
-216 -215 0
-215 -214 0
-216 -214 0
214 215 216 0
-217 -218 0
-218 -219 0
-217 -219 0
219 218 217 0
-220 -3 -6 -219 0
-221 -2 -5 -218 0
-222 -1 -4 -217 0
-220 -30 -31 -219 0
-221 -29 -32 -218 0
-222 -28 -33 -217 0
-220 -57 -58 -219 0
-221 -56 -59 -218 0
-222 -55 -60 -217 0
-220 -84 -85 -219 0
-221 -83 -86 -218 0
-222 -82 -87 -217 0
-220 -111 -112 -219 0
-221 -110 -113 -218 0
-222 -109 -114 -217 0
-220 -138 -139 -219 0
-221 -137 -140 -218 0
-222 -136 -141 -217 0
-220 -165 -166 -219 0
-221 -164 -167 -218 0
-222 -163 -168 -217 0
-220 -192 -193 -219 0
-221 -191 -194 -218 0
-222 -190 -195 -217 0
-222 -221 0
-221 -220 0
-222 -220 0
220 221 222 0
-223 -3 -9 -219 0
-224 -2 -8 -218 0
-225 -1 -7 -217 0
-223 -6 -9 -220 0
-224 -5 -8 -221 0
-225 -4 -7 -222 0
-223 -30 -34 -219 0
-224 -29 -35 -218 0
-225 -28 -36 -217 0
-223 -31 -34 -220 0
-224 -32 -35 -221 0
-225 -33 -36 -222 0
-223 -57 -61 -219 0
-224 -56 -62 -218 0
-225 -55 -63 -217 0
-223 -58 -61 -220 0
-224 -59 -62 -221 0
-225 -60 -63 -222 0
-223 -84 -88 -219 0
-224 -83 -89 -218 0
-225 -82 -90 -217 0
-223 -85 -88 -220 0
-224 -86 -89 -221 0
-225 -87 -90 -222 0
-223 -111 -115 -219 0
-224 -110 -116 -218 0
-225 -109 -117 -217 0
-223 -112 -115 -220 0
-224 -113 -116 -221 0
-225 -114 -117 -222 0
-223 -138 -142 -219 0
-224 -137 -143 -218 0
-225 -136 -144 -217 0
-223 -139 -142 -220 0
-224 -140 -143 -221 0
-225 -141 -144 -222 0
-223 -165 -169 -219 0
-224 -164 -170 -218 0
-225 -163 -171 -217 0
-223 -166 -169 -220 0
-224 -167 -170 -221 0
-225 -168 -171 -222 0
-223 -192 -196 -219 0
-224 -191 -197 -218 0
-225 -190 -198 -217 0
-223 -193 -196 -220 0
-224 -194 -197 -221 0
-225 -195 -198 -222 0
-225 -224 0
-224 -223 0
-225 -223 0
223 224 225 0
-226 -3 -12 -219 0
-227 -2 -11 -218 0
-228 -1 -10 -217 0
-226 -6 -12 -220 0
-227 -5 -11 -221 0
-228 -4 -10 -222 0
-226 -9 -12 -223 0
-227 -8 -11 -224 0
-228 -7 -10 -225 0
-226 -30 -37 -219 0
-227 -29 -38 -218 0
-228 -28 -39 -217 0
-226 -31 -37 -220 0
-227 -32 -38 -221 0
-228 -33 -39 -222 0
-226 -34 -37 -223 0
-227 -35 -38 -224 0
-228 -36 -39 -225 0
-226 -57 -64 -219 0
-227 -56 -65 -218 0
-228 -55 -66 -217 0
-226 -58 -64 -220 0
-227 -59 -65 -221 0
-228 -60 -66 -222 0
-226 -61 -64 -223 0
-227 -62 -65 -224 0
-228 -63 -66 -225 0
-226 -84 -91 -219 0
-227 -83 -92 -218 0
-228 -82 -93 -217 0
-226 -85 -91 -220 0
-227 -86 -92 -221 0
-228 -87 -93 -222 0
-226 -88 -91 -223 0
-227 -89 -92 -224 0
-228 -90 -93 -225 0
-226 -111 -118 -219 0
-227 -110 -119 -218 0
-228 -109 -120 -217 0
-226 -112 -118 -220 0
-227 -113 -119 -221 0
-228 -114 -120 -222 0
-226 -115 -118 -223 0
-227 -116 -119 -224 0
-228 -117 -120 -225 0
-226 -138 -145 -219 0
-227 -137 -146 -218 0
-228 -136 -147 -217 0
-226 -139 -145 -220 0
-227 -140 -146 -221 0
-228 -141 -147 -222 0
-226 -142 -145 -223 0
-227 -143 -146 -224 0
-228 -144 -147 -225 0
-226 -165 -172 -219 0
-227 -164 -173 -218 0
-228 -163 -174 -217 0
-226 -166 -172 -220 0
-227 -167 -173 -221 0
-228 -168 -174 -222 0
-226 -169 -172 -223 0
-227 -170 -173 -224 0
-228 -171 -174 -225 0
-226 -192 -199 -219 0
-227 -191 -200 -218 0
-228 -190 -201 -217 0
-226 -193 -199 -220 0
-227 -194 -200 -221 0
-228 -195 -201 -222 0
-226 -196 -199 -223 0
-227 -197 -200 -224 0
-228 -198 -201 -225 0
-228 -227 0
-227 -226 0
-228 -226 0
226 227 228 0
-229 -3 -15 -219 0
-230 -2 -14 -218 0
-231 -1 -13 -217 0
-229 -6 -15 -220 0
-230 -5 -14 -221 0
-231 -4 -13 -222 0
-229 -9 -15 -223 0
-230 -8 -14 -224 0
-231 -7 -13 -225 0
-229 -12 -15 -226 0
-230 -11 -14 -227 0
-231 -10 -13 -228 0
-229 -30 -40 -219 0
-230 -29 -41 -218 0
-231 -28 -42 -217 0
-229 -31 -40 -220 0
-230 -32 -41 -221 0
-231 -33 -42 -222 0
-229 -34 -40 -223 0
-230 -35 -41 -224 0
-231 -36 -42 -225 0
-229 -37 -40 -226 0
-230 -38 -41 -227 0
-231 -39 -42 -228 0
-229 -57 -67 -219 0
-230 -56 -68 -218 0
-231 -55 -69 -217 0
-229 -58 -67 -220 0
-230 -59 -68 -221 0
-231 -60 -69 -222 0
-229 -61 -67 -223 0
-230 -62 -68 -224 0
-231 -63 -69 -225 0
-229 -64 -67 -226 0
-230 -65 -68 -227 0
-231 -66 -69 -228 0
-229 -84 -94 -219 0
-230 -83 -95 -218 0
-231 -82 -96 -217 0
-229 -85 -94 -220 0
-230 -86 -95 -221 0
-231 -87 -96 -222 0
-229 -88 -94 -223 0
-230 -89 -95 -224 0
-231 -90 -96 -225 0
-229 -91 -94 -226 0
-230 -92 -95 -227 0
-231 -93 -96 -228 0
-229 -111 -121 -219 0
-230 -110 -122 -218 0
-231 -109 -123 -217 0
-229 -112 -121 -220 0
-230 -113 -122 -221 0
-231 -114 -123 -222 0
-229 -115 -121 -223 0
-230 -116 -122 -224 0
-231 -117 -123 -225 0
-229 -118 -121 -226 0
-230 -119 -122 -227 0
-231 -120 -123 -228 0
-229 -138 -148 -219 0
-230 -137 -149 -218 0
-231 -136 -150 -217 0
-229 -139 -148 -220 0
-230 -140 -149 -221 0
-231 -141 -150 -222 0
-229 -142 -148 -223 0
-230 -143 -149 -224 0
-231 -144 -150 -225 0
-229 -145 -148 -226 0
-230 -146 -149 -227 0
-231 -147 -150 -228 0
-229 -165 -175 -219 0
-230 -164 -176 -218 0
-231 -163 -177 -217 0
-229 -166 -175 -220 0
-230 -167 -176 -221 0
-231 -168 -177 -222 0
-229 -169 -175 -223 0
-230 -170 -176 -224 0
-231 -171 -177 -225 0
-229 -172 -175 -226 0
-230 -173 -176 -227 0
-231 -174 -177 -228 0
-229 -192 -202 -219 0
-230 -191 -203 -218 0
-231 -190 -204 -217 0
-229 -193 -202 -220 0
-230 -194 -203 -221 0
-231 -195 -204 -222 0
-229 -196 -202 -223 0
-230 -197 -203 -224 0
-231 -198 -204 -225 0
-229 -199 -202 -226 0
-230 -200 -203 -227 0
-231 -201 -204 -228 0
-231 -230 0
-230 -229 0
-231 -229 0
229 230 231 0
-232 -3 -18 -219 0
-233 -2 -17 -218 0
-234 -1 -16 -217 0
-232 -6 -18 -220 0
-233 -5 -17 -221 0
-234 -4 -16 -222 0
-232 -9 -18 -223 0
-233 -8 -17 -224 0
-234 -7 -16 -225 0
-232 -12 -18 -226 0
-233 -11 -17 -227 0
-234 -10 -16 -228 0
-232 -15 -18 -229 0
-233 -14 -17 -230 0
-234 -13 -16 -231 0
-232 -30 -43 -219 0
-233 -29 -44 -218 0
-234 -28 -45 -217 0
-232 -31 -43 -220 0
-233 -32 -44 -221 0
-234 -33 -45 -222 0
-232 -34 -43 -223 0
-233 -35 -44 -224 0
-234 -36 -45 -225 0
-232 -37 -43 -226 0
-233 -38 -44 -227 0
-234 -39 -45 -228 0
-232 -40 -43 -229 0
-233 -41 -44 -230 0
-234 -42 -45 -231 0
-232 -57 -70 -219 0
-233 -56 -71 -218 0
-234 -55 -72 -217 0
-232 -58 -70 -220 0
-233 -59 -71 -221 0
-234 -60 -72 -222 0
-232 -61 -70 -223 0
-233 -62 -71 -224 0
-234 -63 -72 -225 0
-232 -64 -70 -226 0
-233 -65 -71 -227 0
-234 -66 -72 -228 0
-232 -67 -70 -229 0
-233 -68 -71 -230 0
-234 -69 -72 -231 0
-232 -84 -97 -219 0
-233 -83 -98 -218 0
-234 -82 -99 -217 0
-232 -85 -97 -220 0
-233 -86 -98 -221 0
-234 -87 -99 -222 0
-232 -88 -97 -223 0
-233 -89 -98 -224 0
-234 -90 -99 -225 0
-232 -91 -97 -226 0
-233 -92 -98 -227 0
-234 -93 -99 -228 0
-232 -94 -97 -229 0
-233 -95 -98 -230 0
-234 -96 -99 -231 0
-232 -111 -124 -219 0
-233 -110 -125 -218 0
-234 -109 -126 -217 0
-232 -112 -124 -220 0
-233 -113 -125 -221 0
-234 -114 -126 -222 0
-232 -115 -124 -223 0
-233 -116 -125 -224 0
-234 -117 -126 -225 0
-232 -118 -124 -226 0
-233 -119 -125 -227 0
-234 -120 -126 -228 0
-232 -121 -124 -229 0
-233 -122 -125 -230 0
-234 -123 -126 -231 0
-232 -138 -151 -219 0
-233 -137 -152 -218 0
-234 -136 -153 -217 0
-232 -139 -151 -220 0
-233 -140 -152 -221 0
-234 -141 -153 -222 0
-232 -142 -151 -223 0
-233 -143 -152 -224 0
-234 -144 -153 -225 0
-232 -145 -151 -226 0
-233 -146 -152 -227 0
-234 -147 -153 -228 0
-232 -148 -151 -229 0
-233 -149 -152 -230 0
-234 -150 -153 -231 0
-232 -165 -178 -219 0
-233 -164 -179 -218 0
-234 -163 -180 -217 0
-232 -166 -178 -220 0
-233 -167 -179 -221 0
-234 -168 -180 -222 0
-232 -169 -178 -223 0
-233 -170 -179 -224 0
-234 -171 -180 -225 0
-232 -172 -178 -226 0
-233 -173 -179 -227 0
-234 -174 -180 -228 0
-232 -175 -178 -229 0
-233 -176 -179 -230 0
-234 -177 -180 -231 0
-232 -192 -205 -219 0
-233 -191 -206 -218 0
-234 -190 -207 -217 0
-232 -193 -205 -220 0
-233 -194 -206 -221 0
-234 -195 -207 -222 0
-232 -196 -205 -223 0
-233 -197 -206 -224 0
-234 -198 -207 -225 0
-232 -199 -205 -226 0
-233 -200 -206 -227 0
-234 -201 -207 -228 0
-232 -202 -205 -229 0
-233 -203 -206 -230 0
-234 -204 -207 -231 0
-234 -233 0
-233 -232 0
-234 -232 0
232 233 234 0
-235 -3 -21 -219 0
-236 -2 -20 -218 0
-237 -1 -19 -217 0
-235 -6 -21 -220 0
-236 -5 -20 -221 0
-237 -4 -19 -222 0
-235 -9 -21 -223 0
-236 -8 -20 -224 0
-237 -7 -19 -225 0
-235 -12 -21 -226 0
-236 -11 -20 -227 0
-237 -10 -19 -228 0
-235 -15 -21 -229 0
-236 -14 -20 -230 0
-237 -13 -19 -231 0
-235 -18 -21 -232 0
-236 -17 -20 -233 0
-237 -16 -19 -234 0
-235 -30 -46 -219 0
-236 -29 -47 -218 0
-237 -28 -48 -217 0
-235 -31 -46 -220 0
-236 -32 -47 -221 0
-237 -33 -48 -222 0
-235 -34 -46 -223 0
-236 -35 -47 -224 0
-237 -36 -48 -225 0
-235 -37 -46 -226 0
-236 -38 -47 -227 0
-237 -39 -48 -228 0
-235 -40 -46 -229 0
-236 -41 -47 -230 0
-237 -42 -48 -231 0
-235 -43 -46 -232 0
-236 -44 -47 -233 0
-237 -45 -48 -234 0
-235 -57 -73 -219 0
-236 -56 -74 -218 0
-237 -55 -75 -217 0
-235 -58 -73 -220 0
-236 -59 -74 -221 0
-237 -60 -75 -222 0
-235 -61 -73 -223 0
-236 -62 -74 -224 0
-237 -63 -75 -225 0
-235 -64 -73 -226 0
-236 -65 -74 -227 0
-237 -66 -75 -228 0
-235 -67 -73 -229 0
-236 -68 -74 -230 0
-237 -69 -75 -231 0
-235 -70 -73 -232 0
-236 -71 -74 -233 0
-237 -72 -75 -234 0
-235 -84 -100 -219 0
-236 -83 -101 -218 0
-237 -82 -102 -217 0
-235 -85 -100 -220 0
-236 -86 -101 -221 0
-237 -87 -102 -222 0
-235 -88 -100 -223 0
-236 -89 -101 -224 0
-237 -90 -102 -225 0
-235 -91 -100 -226 0
-236 -92 -101 -227 0
-237 -93 -102 -228 0
-235 -94 -100 -229 0
-236 -95 -101 -230 0
-237 -96 -102 -231 0
-235 -97 -100 -232 0
-236 -98 -101 -233 0
-237 -99 -102 -234 0
-235 -111 -127 -219 0
-236 -110 -128 -218 0
-237 -109 -129 -217 0
-235 -112 -127 -220 0
-236 -113 -128 -221 0
-237 -114 -129 -222 0
-235 -115 -127 -223 0
-236 -116 -128 -224 0
-237 -117 -129 -225 0
-235 -118 -127 -226 0
-236 -119 -128 -227 0
-237 -120 -129 -228 0
-235 -121 -127 -229 0
-236 -122 -128 -230 0
-237 -123 -129 -231 0
-235 -124 -127 -232 0
-236 -125 -128 -233 0
-237 -126 -129 -234 0
-235 -138 -154 -219 0
-236 -137 -155 -218 0
-237 -136 -156 -217 0
-235 -139 -154 -220 0
-236 -140 -155 -221 0
-237 -141 -156 -222 0
-235 -142 -154 -223 0
-236 -143 -155 -224 0
-237 -144 -156 -225 0
-235 -145 -154 -226 0
-236 -146 -155 -227 0
-237 -147 -156 -228 0
-235 -148 -154 -229 0
-236 -149 -155 -230 0
-237 -150 -156 -231 0
-235 -151 -154 -232 0
-236 -152 -155 -233 0
-237 -153 -156 -234 0
-235 -165 -181 -219 0
-236 -164 -182 -218 0
-237 -163 -183 -217 0
-235 -166 -181 -220 0
-236 -167 -182 -221 0
-237 -168 -183 -222 0
-235 -169 -181 -223 0
-236 -170 -182 -224 0
-237 -171 -183 -225 0
-235 -172 -181 -226 0
-236 -173 -182 -227 0
-237 -174 -183 -228 0
-235 -175 -181 -229 0
-236 -176 -182 -230 0
-237 -177 -183 -231 0
-235 -178 -181 -232 0
-236 -179 -182 -233 0
-237 -180 -183 -234 0
-235 -192 -208 -219 0
-236 -191 -209 -218 0
-237 -190 -210 -217 0
-235 -193 -208 -220 0
-236 -194 -209 -221 0
-237 -195 -210 -222 0
-235 -196 -208 -223 0
-236 -197 -209 -224 0
-237 -198 -210 -225 0
-235 -199 -208 -226 0
-236 -200 -209 -227 0
-237 -201 -210 -228 0
-235 -202 -208 -229 0
-236 -203 -209 -230 0
-237 -204 -210 -231 0
-235 -205 -208 -232 0
-236 -206 -209 -233 0
-237 -207 -210 -234 0
-237 -236 0
-236 -235 0
-237 -235 0
235 236 237 0
-238 -3 -24 -219 0
-239 -2 -23 -218 0
-240 -1 -22 -217 0
-238 -6 -24 -220 0
-239 -5 -23 -221 0
-240 -4 -22 -222 0
-238 -9 -24 -223 0
-239 -8 -23 -224 0
-240 -7 -22 -225 0
-238 -12 -24 -226 0
-239 -11 -23 -227 0
-240 -10 -22 -228 0
-238 -15 -24 -229 0
-239 -14 -23 -230 0
-240 -13 -22 -231 0
-238 -18 -24 -232 0
-239 -17 -23 -233 0
-240 -16 -22 -234 0
-238 -21 -24 -235 0
-239 -20 -23 -236 0
-240 -19 -22 -237 0
-238 -30 -49 -219 0
-239 -29 -50 -218 0
-240 -28 -51 -217 0
-238 -31 -49 -220 0
-239 -32 -50 -221 0
-240 -33 -51 -222 0
-238 -34 -49 -223 0
-239 -35 -50 -224 0
-240 -36 -51 -225 0
-238 -37 -49 -226 0
-239 -38 -50 -227 0
-240 -39 -51 -228 0
-238 -40 -49 -229 0
-239 -41 -50 -230 0
-240 -42 -51 -231 0
-238 -43 -49 -232 0
-239 -44 -50 -233 0
-240 -45 -51 -234 0
-238 -46 -49 -235 0
-239 -47 -50 -236 0
-240 -48 -51 -237 0
-238 -57 -76 -219 0
-239 -56 -77 -218 0
-240 -55 -78 -217 0
-238 -58 -76 -220 0
-239 -59 -77 -221 0
-240 -60 -78 -222 0
-238 -61 -76 -223 0
-239 -62 -77 -224 0
-240 -63 -78 -225 0
-238 -64 -76 -226 0
-239 -65 -77 -227 0
-240 -66 -78 -228 0
-238 -67 -76 -229 0
-239 -68 -77 -230 0
-240 -69 -78 -231 0
-238 -70 -76 -232 0
-239 -71 -77 -233 0
-240 -72 -78 -234 0
-238 -73 -76 -235 0
-239 -74 -77 -236 0
-240 -75 -78 -237 0
-238 -84 -103 -219 0
-239 -83 -104 -218 0
-240 -82 -105 -217 0
-238 -85 -103 -220 0
-239 -86 -104 -221 0
-240 -87 -105 -222 0
-238 -88 -103 -223 0
-239 -89 -104 -224 0
-240 -90 -105 -225 0
-238 -91 -103 -226 0
-239 -92 -104 -227 0
-240 -93 -105 -228 0
-238 -94 -103 -229 0
-239 -95 -104 -230 0
-240 -96 -105 -231 0
-238 -97 -103 -232 0
-239 -98 -104 -233 0
-240 -99 -105 -234 0
-238 -100 -103 -235 0
-239 -101 -104 -236 0
-240 -102 -105 -237 0
-238 -111 -130 -219 0
-239 -110 -131 -218 0
-240 -109 -132 -217 0
-238 -112 -130 -220 0
-239 -113 -131 -221 0
-240 -114 -132 -222 0
-238 -115 -130 -223 0
-239 -116 -131 -224 0
-240 -117 -132 -225 0
-238 -118 -130 -226 0
-239 -119 -131 -227 0
-240 -120 -132 -228 0
-238 -121 -130 -229 0
-239 -122 -131 -230 0
-240 -123 -132 -231 0
-238 -124 -130 -232 0
-239 -125 -131 -233 0
-240 -126 -132 -234 0
-238 -127 -130 -235 0
-239 -128 -131 -236 0
-240 -129 -132 -237 0
-238 -138 -157 -219 0
-239 -137 -158 -218 0
-240 -136 -159 -217 0
-238 -139 -157 -220 0
-239 -140 -158 -221 0
-240 -141 -159 -222 0
-238 -142 -157 -223 0
-239 -143 -158 -224 0
-240 -144 -159 -225 0
-238 -145 -157 -226 0
-239 -146 -158 -227 0
-240 -147 -159 -228 0
-238 -148 -157 -229 0
-239 -149 -158 -230 0
-240 -150 -159 -231 0
-238 -151 -157 -232 0
-239 -152 -158 -233 0
-240 -153 -159 -234 0
-238 -154 -157 -235 0
-239 -155 -158 -236 0
-240 -156 -159 -237 0
-238 -165 -184 -219 0
-239 -164 -185 -218 0
-240 -163 -186 -217 0
-238 -166 -184 -220 0
-239 -167 -185 -221 0
-240 -168 -186 -222 0
-238 -169 -184 -223 0
-239 -170 -185 -224 0
-240 -171 -186 -225 0
-238 -172 -184 -226 0
-239 -173 -185 -227 0
-240 -174 -186 -228 0
-238 -175 -184 -229 0
-239 -176 -185 -230 0
-240 -177 -186 -231 0
-238 -178 -184 -232 0
-239 -179 -185 -233 0
-240 -180 -186 -234 0
-238 -181 -184 -235 0
-239 -182 -185 -236 0
-240 -183 -186 -237 0
-238 -192 -211 -219 0
-239 -191 -212 -218 0
-240 -190 -213 -217 0
-238 -193 -211 -220 0
-239 -194 -212 -221 0
-240 -195 -213 -222 0
-238 -196 -211 -223 0
-239 -197 -212 -224 0
-240 -198 -213 -225 0
-238 -199 -211 -226 0
-239 -200 -212 -227 0
-240 -201 -213 -228 0
-238 -202 -211 -229 0
-239 -203 -212 -230 0
-240 -204 -213 -231 0
-238 -205 -211 -232 0
-239 -206 -212 -233 0
-240 -207 -213 -234 0
-238 -208 -211 -235 0
-239 -209 -212 -236 0
-240 -210 -213 -237 0
-240 -239 0
-239 -238 0
-240 -238 0
238 239 240 0
-241 -3 -27 -219 0
-242 -2 -26 -218 0
-243 -1 -25 -217 0
-241 -6 -27 -220 0
-242 -5 -26 -221 0
-243 -4 -25 -222 0
-241 -9 -27 -223 0
-242 -8 -26 -224 0
-243 -7 -25 -225 0
-241 -12 -27 -226 0
-242 -11 -26 -227 0
-243 -10 -25 -228 0
-241 -15 -27 -229 0
-242 -14 -26 -230 0
-243 -13 -25 -231 0
-241 -18 -27 -232 0
-242 -17 -26 -233 0
-243 -16 -25 -234 0
-241 -21 -27 -235 0
-242 -20 -26 -236 0
-243 -19 -25 -237 0
-241 -24 -27 -238 0
-242 -23 -26 -239 0
-243 -22 -25 -240 0
-241 -30 -52 -219 0
-242 -29 -53 -218 0
-243 -28 -54 -217 0
-241 -31 -52 -220 0
-242 -32 -53 -221 0
-243 -33 -54 -222 0
-241 -34 -52 -223 0
-242 -35 -53 -224 0
-243 -36 -54 -225 0
-241 -37 -52 -226 0
-242 -38 -53 -227 0
-243 -39 -54 -228 0
-241 -40 -52 -229 0
-242 -41 -53 -230 0
-243 -42 -54 -231 0
-241 -43 -52 -232 0
-242 -44 -53 -233 0
-243 -45 -54 -234 0
-241 -46 -52 -235 0
-242 -47 -53 -236 0
-243 -48 -54 -237 0
-241 -49 -52 -238 0
-242 -50 -53 -239 0
-243 -51 -54 -240 0
-241 -57 -79 -219 0
-242 -56 -80 -218 0
-243 -55 -81 -217 0
-241 -58 -79 -220 0
-242 -59 -80 -221 0
-243 -60 -81 -222 0
-241 -61 -79 -223 0
-242 -62 -80 -224 0
-243 -63 -81 -225 0
-241 -64 -79 -226 0
-242 -65 -80 -227 0
-243 -66 -81 -228 0
-241 -67 -79 -229 0
-242 -68 -80 -230 0
-243 -69 -81 -231 0
-241 -70 -79 -232 0
-242 -71 -80 -233 0
-243 -72 -81 -234 0
-241 -73 -79 -235 0
-242 -74 -80 -236 0
-243 -75 -81 -237 0
-241 -76 -79 -238 0
-242 -77 -80 -239 0
-243 -78 -81 -240 0
-241 -84 -106 -219 0
-242 -83 -107 -218 0
-243 -82 -108 -217 0
-241 -85 -106 -220 0
-242 -86 -107 -221 0
-243 -87 -108 -222 0
-241 -88 -106 -223 0
-242 -89 -107 -224 0
-243 -90 -108 -225 0
-241 -91 -106 -226 0
-242 -92 -107 -227 0
-243 -93 -108 -228 0
-241 -94 -106 -229 0
-242 -95 -107 -230 0
-243 -96 -108 -231 0
-241 -97 -106 -232 0
-242 -98 -107 -233 0
-243 -99 -108 -234 0
-241 -100 -106 -235 0
-242 -101 -107 -236 0
-243 -102 -108 -237 0
-241 -103 -106 -238 0
-242 -104 -107 -239 0
-243 -105 -108 -240 0
-241 -111 -133 -219 0
-242 -110 -134 -218 0
-243 -109 -135 -217 0
-241 -112 -133 -220 0
-242 -113 -134 -221 0
-243 -114 -135 -222 0
-241 -115 -133 -223 0
-242 -116 -134 -224 0
-243 -117 -135 -225 0
-241 -118 -133 -226 0
-242 -119 -134 -227 0
-243 -120 -135 -228 0
-241 -121 -133 -229 0
-242 -122 -134 -230 0
-243 -123 -135 -231 0
-241 -124 -133 -232 0
-242 -125 -134 -233 0
-243 -126 -135 -234 0
-241 -127 -133 -235 0
-242 -128 -134 -236 0
-243 -129 -135 -237 0
-241 -130 -133 -238 0
-242 -131 -134 -239 0
-243 -132 -135 -240 0
-241 -138 -160 -219 0
-242 -137 -161 -218 0
-243 -136 -162 -217 0
-241 -139 -160 -220 0
-242 -140 -161 -221 0
-243 -141 -162 -222 0
-241 -142 -160 -223 0
-242 -143 -161 -224 0
-243 -144 -162 -225 0
-241 -145 -160 -226 0
-242 -146 -161 -227 0
-243 -147 -162 -228 0
-241 -148 -160 -229 0
-242 -149 -161 -230 0
-243 -150 -162 -231 0
-241 -151 -160 -232 0
-242 -152 -161 -233 0
-243 -153 -162 -234 0
-241 -154 -160 -235 0
-242 -155 -161 -236 0
-243 -156 -162 -237 0
-241 -157 -160 -238 0
-242 -158 -161 -239 0
-243 -159 -162 -240 0
-241 -165 -187 -219 0
-242 -164 -188 -218 0
-243 -163 -189 -217 0
-241 -166 -187 -220 0
-242 -167 -188 -221 0
-243 -168 -189 -222 0
-241 -169 -187 -223 0
-242 -170 -188 -224 0
-243 -171 -189 -225 0
-241 -172 -187 -226 0
-242 -173 -188 -227 0
-243 -174 -189 -228 0
-241 -175 -187 -229 0
-242 -176 -188 -230 0
-243 -177 -189 -231 0
-241 -178 -187 -232 0
-242 -179 -188 -233 0
-243 -180 -189 -234 0
-241 -181 -187 -235 0
-242 -182 -188 -236 0
-243 -183 -189 -237 0
-241 -184 -187 -238 0
-242 -185 -188 -239 0
-243 -186 -189 -240 0
-241 -192 -214 -219 0
-242 -191 -215 -218 0
-243 -190 -216 -217 0
-241 -193 -214 -220 0
-242 -194 -215 -221 0
-243 -195 -216 -222 0
-241 -196 -214 -223 0
-242 -197 -215 -224 0
-243 -198 -216 -225 0
-241 -199 -214 -226 0
-242 -200 -215 -227 0
-243 -201 -216 -228 0
-241 -202 -214 -229 0
-242 -203 -215 -230 0
-243 -204 -216 -231 0
-241 -205 -214 -232 0
-242 -206 -215 -233 0
-243 -207 -216 -234 0
-241 -208 -214 -235 0
-242 -209 -215 -236 0
-243 -210 -216 -237 0
-241 -211 -214 -238 0
-242 -212 -215 -239 0
-243 -213 -216 -240 0
-243 -242 0
-242 -241 0
-243 -241 0
241 242 243 0
-244 -245 0
-245 -246 0
-244 -246 0
246 245 244 0
-247 -3 -6 -246 0
-248 -2 -5 -245 0
-249 -1 -4 -244 0
-247 -30 -31 -246 0
-248 -29 -32 -245 0
-249 -28 -33 -244 0
-247 -57 -58 -246 0
-248 -56 -59 -245 0
-249 -55 -60 -244 0
-247 -84 -85 -246 0
-248 -83 -86 -245 0
-249 -82 -87 -244 0
-247 -111 -112 -246 0
-248 -110 -113 -245 0
-249 -109 -114 -244 0
-247 -138 -139 -246 0
-248 -137 -140 -245 0
-249 -136 -141 -244 0
-247 -165 -166 -246 0
-248 -164 -167 -245 0
-249 -163 -168 -244 0
-247 -192 -193 -246 0
-248 -191 -194 -245 0
-249 -190 -195 -244 0
-247 -219 -220 -246 0
-248 -218 -221 -245 0
-249 -217 -222 -244 0
-249 -248 0
-248 -247 0
-249 -247 0
247 248 249 0
-250 -3 -9 -246 0
-251 -2 -8 -245 0
-252 -1 -7 -244 0
-250 -6 -9 -247 0
-251 -5 -8 -248 0
-252 -4 -7 -249 0
-250 -30 -34 -246 0
-251 -29 -35 -245 0
-252 -28 -36 -244 0
-250 -31 -34 -247 0
-251 -32 -35 -248 0
-252 -33 -36 -249 0
-250 -57 -61 -246 0
-251 -56 -62 -245 0
-252 -55 -63 -244 0
-250 -58 -61 -247 0
-251 -59 -62 -248 0
-252 -60 -63 -249 0
-250 -84 -88 -246 0
-251 -83 -89 -245 0
-252 -82 -90 -244 0
-250 -85 -88 -247 0
-251 -86 -89 -248 0
-252 -87 -90 -249 0
-250 -111 -115 -246 0
-251 -110 -116 -245 0
-252 -109 -117 -244 0
-250 -112 -115 -247 0
-251 -113 -116 -248 0
-252 -114 -117 -249 0
-250 -138 -142 -246 0
-251 -137 -143 -245 0
-252 -136 -144 -244 0
-250 -139 -142 -247 0
-251 -140 -143 -248 0
-252 -141 -144 -249 0
-250 -165 -169 -246 0
-251 -164 -170 -245 0
-252 -163 -171 -244 0
-250 -166 -169 -247 0
-251 -167 -170 -248 0
-252 -168 -171 -249 0
-250 -192 -196 -246 0
-251 -191 -197 -245 0
-252 -190 -198 -244 0
-250 -193 -196 -247 0
-251 -194 -197 -248 0
-252 -195 -198 -249 0
-250 -219 -223 -246 0
-251 -218 -224 -245 0
-252 -217 -225 -244 0
-250 -220 -223 -247 0
-251 -221 -224 -248 0
-252 -222 -225 -249 0
-252 -251 0
-251 -250 0
-252 -250 0
250 251 252 0
-253 -3 -12 -246 0
-254 -2 -11 -245 0
-255 -1 -10 -244 0
-253 -6 -12 -247 0
-254 -5 -11 -248 0
-255 -4 -10 -249 0
-253 -9 -12 -250 0
-254 -8 -11 -251 0
-255 -7 -10 -252 0
-253 -30 -37 -246 0
-254 -29 -38 -245 0
-255 -28 -39 -244 0
-253 -31 -37 -247 0
-254 -32 -38 -248 0
-255 -33 -39 -249 0
-253 -34 -37 -250 0
-254 -35 -38 -251 0
-255 -36 -39 -252 0
-253 -57 -64 -246 0
-254 -56 -65 -245 0
-255 -55 -66 -244 0
-253 -58 -64 -247 0
-254 -59 -65 -248 0
-255 -60 -66 -249 0
-253 -61 -64 -250 0
-254 -62 -65 -251 0
-255 -63 -66 -252 0
-253 -84 -91 -246 0
-254 -83 -92 -245 0
-255 -82 -93 -244 0
-253 -85 -91 -247 0
-254 -86 -92 -248 0
-255 -87 -93 -249 0
-253 -88 -91 -250 0
-254 -89 -92 -251 0
-255 -90 -93 -252 0
-253 -111 -118 -246 0
-254 -110 -119 -245 0
-255 -109 -120 -244 0
-253 -112 -118 -247 0
-254 -113 -119 -248 0
-255 -114 -120 -249 0
-253 -115 -118 -250 0
-254 -116 -119 -251 0
-255 -117 -120 -252 0
-253 -138 -145 -246 0
-254 -137 -146 -245 0
-255 -136 -147 -244 0
-253 -139 -145 -247 0
-254 -140 -146 -248 0
-255 -141 -147 -249 0
-253 -142 -145 -250 0
-254 -143 -146 -251 0
-255 -144 -147 -252 0
-253 -165 -172 -246 0
-254 -164 -173 -245 0
-255 -163 -174 -244 0
-253 -166 -172 -247 0
-254 -167 -173 -248 0
-255 -168 -174 -249 0
-253 -169 -172 -250 0
-254 -170 -173 -251 0
-255 -171 -174 -252 0
-253 -192 -199 -246 0
-254 -191 -200 -245 0
-255 -190 -201 -244 0
-253 -193 -199 -247 0
-254 -194 -200 -248 0
-255 -195 -201 -249 0
-253 -196 -199 -250 0
-254 -197 -200 -251 0
-255 -198 -201 -252 0
-253 -219 -226 -246 0
-254 -218 -227 -245 0
-255 -217 -228 -244 0
-253 -220 -226 -247 0
-254 -221 -227 -248 0
-255 -222 -228 -249 0
-253 -223 -226 -250 0
-254 -224 -227 -251 0
-255 -225 -228 -252 0
-255 -254 0
-254 -253 0
-255 -253 0
253 254 255 0
-256 -3 -15 -246 0
-257 -2 -14 -245 0
-258 -1 -13 -244 0
-256 -6 -15 -247 0
-257 -5 -14 -248 0
-258 -4 -13 -249 0
-256 -9 -15 -250 0
-257 -8 -14 -251 0
-258 -7 -13 -252 0
-256 -12 -15 -253 0
-257 -11 -14 -254 0
-258 -10 -13 -255 0
-256 -30 -40 -246 0
-257 -29 -41 -245 0
-258 -28 -42 -244 0
-256 -31 -40 -247 0
-257 -32 -41 -248 0
-258 -33 -42 -249 0
-256 -34 -40 -250 0
-257 -35 -41 -251 0
-258 -36 -42 -252 0
-256 -37 -40 -253 0
-257 -38 -41 -254 0
-258 -39 -42 -255 0
-256 -57 -67 -246 0
-257 -56 -68 -245 0
-258 -55 -69 -244 0
-256 -58 -67 -247 0
-257 -59 -68 -248 0
-258 -60 -69 -249 0
-256 -61 -67 -250 0
-257 -62 -68 -251 0
-258 -63 -69 -252 0
-256 -64 -67 -253 0
-257 -65 -68 -254 0
-258 -66 -69 -255 0
-256 -84 -94 -246 0
-257 -83 -95 -245 0
-258 -82 -96 -244 0
-256 -85 -94 -247 0
-257 -86 -95 -248 0
-258 -87 -96 -249 0
-256 -88 -94 -250 0
-257 -89 -95 -251 0
-258 -90 -96 -252 0
-256 -91 -94 -253 0
-257 -92 -95 -254 0
-258 -93 -96 -255 0
-256 -111 -121 -246 0
-257 -110 -122 -245 0
-258 -109 -123 -244 0
-256 -112 -121 -247 0
-257 -113 -122 -248 0
-258 -114 -123 -249 0
-256 -115 -121 -250 0
-257 -116 -122 -251 0
-258 -117 -123 -252 0
-256 -118 -121 -253 0
-257 -119 -122 -254 0
-258 -120 -123 -255 0
-256 -138 -148 -246 0
-257 -137 -149 -245 0
-258 -136 -150 -244 0
-256 -139 -148 -247 0
-257 -140 -149 -248 0
-258 -141 -150 -249 0
-256 -142 -148 -250 0
-257 -143 -149 -251 0
-258 -144 -150 -252 0
-256 -145 -148 -253 0
-257 -146 -149 -254 0
-258 -147 -150 -255 0
-256 -165 -175 -246 0
-257 -164 -176 -245 0
-258 -163 -177 -244 0
-256 -166 -175 -247 0
-257 -167 -176 -248 0
-258 -168 -177 -249 0
-256 -169 -175 -250 0
-257 -170 -176 -251 0
-258 -171 -177 -252 0
-256 -172 -175 -253 0
-257 -173 -176 -254 0
-258 -174 -177 -255 0
-256 -192 -202 -246 0
-257 -191 -203 -245 0
-258 -190 -204 -244 0
-256 -193 -202 -247 0
-257 -194 -203 -248 0
-258 -195 -204 -249 0
-256 -196 -202 -250 0
-257 -197 -203 -251 0
-258 -198 -204 -252 0
-256 -199 -202 -253 0
-257 -200 -203 -254 0
-258 -201 -204 -255 0
-256 -219 -229 -246 0
-257 -218 -230 -245 0
-258 -217 -231 -244 0
-256 -220 -229 -247 0
-257 -221 -230 -248 0
-258 -222 -231 -249 0
-256 -223 -229 -250 0
-257 -224 -230 -251 0
-258 -225 -231 -252 0
-256 -226 -229 -253 0
-257 -227 -230 -254 0
-258 -228 -231 -255 0
-258 -257 0
-257 -256 0
-258 -256 0
256 257 258 0
-259 -3 -18 -246 0
-260 -2 -17 -245 0
-261 -1 -16 -244 0
-259 -6 -18 -247 0
-260 -5 -17 -248 0
-261 -4 -16 -249 0
-259 -9 -18 -250 0
-260 -8 -17 -251 0
-261 -7 -16 -252 0
-259 -12 -18 -253 0
-260 -11 -17 -254 0
-261 -10 -16 -255 0
-259 -15 -18 -256 0
-260 -14 -17 -257 0
-261 -13 -16 -258 0
-259 -30 -43 -246 0
-260 -29 -44 -245 0
-261 -28 -45 -244 0
-259 -31 -43 -247 0
-260 -32 -44 -248 0
-261 -33 -45 -249 0
-259 -34 -43 -250 0
-260 -35 -44 -251 0
-261 -36 -45 -252 0
-259 -37 -43 -253 0
-260 -38 -44 -254 0
-261 -39 -45 -255 0
-259 -40 -43 -256 0
-260 -41 -44 -257 0
-261 -42 -45 -258 0
-259 -57 -70 -246 0
-260 -56 -71 -245 0
-261 -55 -72 -244 0
-259 -58 -70 -247 0
-260 -59 -71 -248 0
-261 -60 -72 -249 0
-259 -61 -70 -250 0
-260 -62 -71 -251 0
-261 -63 -72 -252 0
-259 -64 -70 -253 0
-260 -65 -71 -254 0
-261 -66 -72 -255 0
-259 -67 -70 -256 0
-260 -68 -71 -257 0
-261 -69 -72 -258 0
-259 -84 -97 -246 0
-260 -83 -98 -245 0
-261 -82 -99 -244 0
-259 -85 -97 -247 0
-260 -86 -98 -248 0
-261 -87 -99 -249 0
-259 -88 -97 -250 0
-260 -89 -98 -251 0
-261 -90 -99 -252 0
-259 -91 -97 -253 0
-260 -92 -98 -254 0
-261 -93 -99 -255 0
-259 -94 -97 -256 0
-260 -95 -98 -257 0
-261 -96 -99 -258 0
-259 -111 -124 -246 0
-260 -110 -125 -245 0
-261 -109 -126 -244 0
-259 -112 -124 -247 0
-260 -113 -125 -248 0
-261 -114 -126 -249 0
-259 -115 -124 -250 0
-260 -116 -125 -251 0
-261 -117 -126 -252 0
-259 -118 -124 -253 0
-260 -119 -125 -254 0
-261 -120 -126 -255 0
-259 -121 -124 -256 0
-260 -122 -125 -257 0
-261 -123 -126 -258 0
-259 -138 -151 -246 0
-260 -137 -152 -245 0
-261 -136 -153 -244 0
-259 -139 -151 -247 0
-260 -140 -152 -248 0
-261 -141 -153 -249 0
-259 -142 -151 -250 0
-260 -143 -152 -251 0
-261 -144 -153 -252 0
-259 -145 -151 -253 0
-260 -146 -152 -254 0
-261 -147 -153 -255 0
-259 -148 -151 -256 0
-260 -149 -152 -257 0
-261 -150 -153 -258 0
-259 -165 -178 -246 0
-260 -164 -179 -245 0
-261 -163 -180 -244 0
-259 -166 -178 -247 0
-260 -167 -179 -248 0
-261 -168 -180 -249 0
-259 -169 -178 -250 0
-260 -170 -179 -251 0
-261 -171 -180 -252 0
-259 -172 -178 -253 0
-260 -173 -179 -254 0
-261 -174 -180 -255 0
-259 -175 -178 -256 0
-260 -176 -179 -257 0
-261 -177 -180 -258 0
-259 -192 -205 -246 0
-260 -191 -206 -245 0
-261 -190 -207 -244 0
-259 -193 -205 -247 0
-260 -194 -206 -248 0
-261 -195 -207 -249 0
-259 -196 -205 -250 0
-260 -197 -206 -251 0
-261 -198 -207 -252 0
-259 -199 -205 -253 0
-260 -200 -206 -254 0
-261 -201 -207 -255 0
-259 -202 -205 -256 0
-260 -203 -206 -257 0
-261 -204 -207 -258 0
-259 -219 -232 -246 0
-260 -218 -233 -245 0
-261 -217 -234 -244 0
-259 -220 -232 -247 0
-260 -221 -233 -248 0
-261 -222 -234 -249 0
-259 -223 -232 -250 0
-260 -224 -233 -251 0
-261 -225 -234 -252 0
-259 -226 -232 -253 0
-260 -227 -233 -254 0
-261 -228 -234 -255 0
-259 -229 -232 -256 0
-260 -230 -233 -257 0
-261 -231 -234 -258 0
-261 -260 0
-260 -259 0
-261 -259 0
259 260 261 0
-262 -3 -21 -246 0
-263 -2 -20 -245 0
-264 -1 -19 -244 0
-262 -6 -21 -247 0
-263 -5 -20 -248 0
-264 -4 -19 -249 0
-262 -9 -21 -250 0
-263 -8 -20 -251 0
-264 -7 -19 -252 0
-262 -12 -21 -253 0
-263 -11 -20 -254 0
-264 -10 -19 -255 0
-262 -15 -21 -256 0
-263 -14 -20 -257 0
-264 -13 -19 -258 0
-262 -18 -21 -259 0
-263 -17 -20 -260 0
-264 -16 -19 -261 0
-262 -30 -46 -246 0
-263 -29 -47 -245 0
-264 -28 -48 -244 0
-262 -31 -46 -247 0
-263 -32 -47 -248 0
-264 -33 -48 -249 0
-262 -34 -46 -250 0
-263 -35 -47 -251 0
-264 -36 -48 -252 0
-262 -37 -46 -253 0
-263 -38 -47 -254 0
-264 -39 -48 -255 0
-262 -40 -46 -256 0
-263 -41 -47 -257 0
-264 -42 -48 -258 0
-262 -43 -46 -259 0
-263 -44 -47 -260 0
-264 -45 -48 -261 0
-262 -57 -73 -246 0
-263 -56 -74 -245 0
-264 -55 -75 -244 0
-262 -58 -73 -247 0
-263 -59 -74 -248 0
-264 -60 -75 -249 0
-262 -61 -73 -250 0
-263 -62 -74 -251 0
-264 -63 -75 -252 0
-262 -64 -73 -253 0
-263 -65 -74 -254 0
-264 -66 -75 -255 0
-262 -67 -73 -256 0
-263 -68 -74 -257 0
-264 -69 -75 -258 0
-262 -70 -73 -259 0
-263 -71 -74 -260 0
-264 -72 -75 -261 0
-262 -84 -100 -246 0
-263 -83 -101 -245 0
-264 -82 -102 -244 0
-262 -85 -100 -247 0
-263 -86 -101 -248 0
-264 -87 -102 -249 0
-262 -88 -100 -250 0
-263 -89 -101 -251 0
-264 -90 -102 -252 0
-262 -91 -100 -253 0
-263 -92 -101 -254 0
-264 -93 -102 -255 0
-262 -94 -100 -256 0
-263 -95 -101 -257 0
-264 -96 -102 -258 0
-262 -97 -100 -259 0
-263 -98 -101 -260 0
-264 -99 -102 -261 0
-262 -111 -127 -246 0
-263 -110 -128 -245 0
-264 -109 -129 -244 0
-262 -112 -127 -247 0
-263 -113 -128 -248 0
-264 -114 -129 -249 0
-262 -115 -127 -250 0
-263 -116 -128 -251 0
-264 -117 -129 -252 0
-262 -118 -127 -253 0
-263 -119 -128 -254 0
-264 -120 -129 -255 0
-262 -121 -127 -256 0
-263 -122 -128 -257 0
-264 -123 -129 -258 0
-262 -124 -127 -259 0
-263 -125 -128 -260 0
-264 -126 -129 -261 0
-262 -138 -154 -246 0
-263 -137 -155 -245 0
-264 -136 -156 -244 0
-262 -139 -154 -247 0
-263 -140 -155 -248 0
-264 -141 -156 -249 0
-262 -142 -154 -250 0
-263 -143 -155 -251 0
-264 -144 -156 -252 0
-262 -145 -154 -253 0
-263 -146 -155 -254 0
-264 -147 -156 -255 0
-262 -148 -154 -256 0
-263 -149 -155 -257 0
-264 -150 -156 -258 0
-262 -151 -154 -259 0
-263 -152 -155 -260 0
-264 -153 -156 -261 0
-262 -165 -181 -246 0
-263 -164 -182 -245 0
-264 -163 -183 -244 0
-262 -166 -181 -247 0
-263 -167 -182 -248 0
-264 -168 -183 -249 0
-262 -169 -181 -250 0
-263 -170 -182 -251 0
-264 -171 -183 -252 0
-262 -172 -181 -253 0
-263 -173 -182 -254 0
-264 -174 -183 -255 0
-262 -175 -181 -256 0
-263 -176 -182 -257 0
-264 -177 -183 -258 0
-262 -178 -181 -259 0
-263 -179 -182 -260 0
-264 -180 -183 -261 0
-262 -192 -208 -246 0
-263 -191 -209 -245 0
-264 -190 -210 -244 0
-262 -193 -208 -247 0
-263 -194 -209 -248 0
-264 -195 -210 -249 0
-262 -196 -208 -250 0
-263 -197 -209 -251 0
-264 -198 -210 -252 0
-262 -199 -208 -253 0
-263 -200 -209 -254 0
-264 -201 -210 -255 0
-262 -202 -208 -256 0
-263 -203 -209 -257 0
-264 -204 -210 -258 0
-262 -205 -208 -259 0
-263 -206 -209 -260 0
-264 -207 -210 -261 0
-262 -219 -235 -246 0
-263 -218 -236 -245 0
-264 -217 -237 -244 0
-262 -220 -235 -247 0
-263 -221 -236 -248 0
-264 -222 -237 -249 0
-262 -223 -235 -250 0
-263 -224 -236 -251 0
-264 -225 -237 -252 0
-262 -226 -235 -253 0
-263 -227 -236 -254 0
-264 -228 -237 -255 0
-262 -229 -235 -256 0
-263 -230 -236 -257 0
-264 -231 -237 -258 0
-262 -232 -235 -259 0
-263 -233 -236 -260 0
-264 -234 -237 -261 0
-264 -263 0
-263 -262 0
-264 -262 0
262 263 264 0
-265 -3 -24 -246 0
-266 -2 -23 -245 0
-267 -1 -22 -244 0
-265 -6 -24 -247 0
-266 -5 -23 -248 0
-267 -4 -22 -249 0
-265 -9 -24 -250 0
-266 -8 -23 -251 0
-267 -7 -22 -252 0
-265 -12 -24 -253 0
-266 -11 -23 -254 0
-267 -10 -22 -255 0
-265 -15 -24 -256 0
-266 -14 -23 -257 0
-267 -13 -22 -258 0
-265 -18 -24 -259 0
-266 -17 -23 -260 0
-267 -16 -22 -261 0
-265 -21 -24 -262 0
-266 -20 -23 -263 0
-267 -19 -22 -264 0
-265 -30 -49 -246 0
-266 -29 -50 -245 0
-267 -28 -51 -244 0
-265 -31 -49 -247 0
-266 -32 -50 -248 0
-267 -33 -51 -249 0
-265 -34 -49 -250 0
-266 -35 -50 -251 0
-267 -36 -51 -252 0
-265 -37 -49 -253 0
-266 -38 -50 -254 0
-267 -39 -51 -255 0
-265 -40 -49 -256 0
-266 -41 -50 -257 0
-267 -42 -51 -258 0
-265 -43 -49 -259 0
-266 -44 -50 -260 0
-267 -45 -51 -261 0
-265 -46 -49 -262 0
-266 -47 -50 -263 0
-267 -48 -51 -264 0
-265 -57 -76 -246 0
-266 -56 -77 -245 0
-267 -55 -78 -244 0
-265 -58 -76 -247 0
-266 -59 -77 -248 0
-267 -60 -78 -249 0
-265 -61 -76 -250 0
-266 -62 -77 -251 0
-267 -63 -78 -252 0
-265 -64 -76 -253 0
-266 -65 -77 -254 0
-267 -66 -78 -255 0
-265 -67 -76 -256 0
-266 -68 -77 -257 0
-267 -69 -78 -258 0
-265 -70 -76 -259 0
-266 -71 -77 -260 0
-267 -72 -78 -261 0
-265 -73 -76 -262 0
-266 -74 -77 -263 0
-267 -75 -78 -264 0
-265 -84 -103 -246 0
-266 -83 -104 -245 0
-267 -82 -105 -244 0
-265 -85 -103 -247 0
-266 -86 -104 -248 0
-267 -87 -105 -249 0
-265 -88 -103 -250 0
-266 -89 -104 -251 0
-267 -90 -105 -252 0
-265 -91 -103 -253 0
-266 -92 -104 -254 0
-267 -93 -105 -255 0
-265 -94 -103 -256 0
-266 -95 -104 -257 0
-267 -96 -105 -258 0
-265 -97 -103 -259 0
-266 -98 -104 -260 0
-267 -99 -105 -261 0
-265 -100 -103 -262 0
-266 -101 -104 -263 0
-267 -102 -105 -264 0
-265 -111 -130 -246 0
-266 -110 -131 -245 0
-267 -109 -132 -244 0
-265 -112 -130 -247 0
-266 -113 -131 -248 0
-267 -114 -132 -249 0
-265 -115 -130 -250 0
-266 -116 -131 -251 0
-267 -117 -132 -252 0
-265 -118 -130 -253 0
-266 -119 -131 -254 0
-267 -120 -132 -255 0
-265 -121 -130 -256 0
-266 -122 -131 -257 0
-267 -123 -132 -258 0
-265 -124 -130 -259 0
-266 -125 -131 -260 0
-267 -126 -132 -261 0
-265 -127 -130 -262 0
-266 -128 -131 -263 0
-267 -129 -132 -264 0
-265 -138 -157 -246 0
-266 -137 -158 -245 0
-267 -136 -159 -244 0
-265 -139 -157 -247 0
-266 -140 -158 -248 0
-267 -141 -159 -249 0
-265 -142 -157 -250 0
-266 -143 -158 -251 0
-267 -144 -159 -252 0
-265 -145 -157 -253 0
-266 -146 -158 -254 0
-267 -147 -159 -255 0
-265 -148 -157 -256 0
-266 -149 -158 -257 0
-267 -150 -159 -258 0
-265 -151 -157 -259 0
-266 -152 -158 -260 0
-267 -153 -159 -261 0
-265 -154 -157 -262 0
-266 -155 -158 -263 0
-267 -156 -159 -264 0
-265 -165 -184 -246 0
-266 -164 -185 -245 0
-267 -163 -186 -244 0
-265 -166 -184 -247 0
-266 -167 -185 -248 0
-267 -168 -186 -249 0
-265 -169 -184 -250 0
-266 -170 -185 -251 0
-267 -171 -186 -252 0
-265 -172 -184 -253 0
-266 -173 -185 -254 0
-267 -174 -186 -255 0
-265 -175 -184 -256 0
-266 -176 -185 -257 0
-267 -177 -186 -258 0
-265 -178 -184 -259 0
-266 -179 -185 -260 0
-267 -180 -186 -261 0
-265 -181 -184 -262 0
-266 -182 -185 -263 0
-267 -183 -186 -264 0
-265 -192 -211 -246 0
-266 -191 -212 -245 0
-267 -190 -213 -244 0
-265 -193 -211 -247 0
-266 -194 -212 -248 0
-267 -195 -213 -249 0
-265 -196 -211 -250 0
-266 -197 -212 -251 0
-267 -198 -213 -252 0
-265 -199 -211 -253 0
-266 -200 -212 -254 0
-267 -201 -213 -255 0
-265 -202 -211 -256 0
-266 -203 -212 -257 0
-267 -204 -213 -258 0
-265 -205 -211 -259 0
-266 -206 -212 -260 0
-267 -207 -213 -261 0
-265 -208 -211 -262 0
-266 -209 -212 -263 0
-267 -210 -213 -264 0
-265 -219 -238 -246 0
-266 -218 -239 -245 0
-267 -217 -240 -244 0
-265 -220 -238 -247 0
-266 -221 -239 -248 0
-267 -222 -240 -249 0
-265 -223 -238 -250 0
-266 -224 -239 -251 0
-267 -225 -240 -252 0
-265 -226 -238 -253 0
-266 -227 -239 -254 0
-267 -228 -240 -255 0
-265 -229 -238 -256 0
-266 -230 -239 -257 0
-267 -231 -240 -258 0
-265 -232 -238 -259 0
-266 -233 -239 -260 0
-267 -234 -240 -261 0
-265 -235 -238 -262 0
-266 -236 -239 -263 0
-267 -237 -240 -264 0
-267 -266 0
-266 -265 0
-267 -265 0
265 266 267 0
-268 -3 -27 -246 0
-269 -2 -26 -245 0
-270 -1 -25 -244 0
-268 -6 -27 -247 0
-269 -5 -26 -248 0
-270 -4 -25 -249 0
-268 -9 -27 -250 0
-269 -8 -26 -251 0
-270 -7 -25 -252 0
-268 -12 -27 -253 0
-269 -11 -26 -254 0
-270 -10 -25 -255 0
-268 -15 -27 -256 0
-269 -14 -26 -257 0
-270 -13 -25 -258 0
-268 -18 -27 -259 0
-269 -17 -26 -260 0
-270 -16 -25 -261 0
-268 -21 -27 -262 0
-269 -20 -26 -263 0
-270 -19 -25 -264 0
-268 -24 -27 -265 0
-269 -23 -26 -266 0
-270 -22 -25 -267 0
-268 -30 -52 -246 0
-269 -29 -53 -245 0
-270 -28 -54 -244 0
-268 -31 -52 -247 0
-269 -32 -53 -248 0
-270 -33 -54 -249 0
-268 -34 -52 -250 0
-269 -35 -53 -251 0
-270 -36 -54 -252 0
-268 -37 -52 -253 0
-269 -38 -53 -254 0
-270 -39 -54 -255 0
-268 -40 -52 -256 0
-269 -41 -53 -257 0
-270 -42 -54 -258 0
-268 -43 -52 -259 0
-269 -44 -53 -260 0
-270 -45 -54 -261 0
-268 -46 -52 -262 0
-269 -47 -53 -263 0
-270 -48 -54 -264 0
-268 -49 -52 -265 0
-269 -50 -53 -266 0
-270 -51 -54 -267 0
-268 -57 -79 -246 0
-269 -56 -80 -245 0
-270 -55 -81 -244 0
-268 -58 -79 -247 0
-269 -59 -80 -248 0
-270 -60 -81 -249 0
-268 -61 -79 -250 0
-269 -62 -80 -251 0
-270 -63 -81 -252 0
-268 -64 -79 -253 0
-269 -65 -80 -254 0
-270 -66 -81 -255 0
-268 -67 -79 -256 0
-269 -68 -80 -257 0
-270 -69 -81 -258 0
-268 -70 -79 -259 0
-269 -71 -80 -260 0
-270 -72 -81 -261 0
-268 -73 -79 -262 0
-269 -74 -80 -263 0
-270 -75 -81 -264 0
-268 -76 -79 -265 0
-269 -77 -80 -266 0
-270 -78 -81 -267 0
-268 -84 -106 -246 0
-269 -83 -107 -245 0
-270 -82 -108 -244 0
-268 -85 -106 -247 0
-269 -86 -107 -248 0
-270 -87 -108 -249 0
-268 -88 -106 -250 0
-269 -89 -107 -251 0
-270 -90 -108 -252 0
-268 -91 -106 -253 0
-269 -92 -107 -254 0
-270 -93 -108 -255 0
-268 -94 -106 -256 0
-269 -95 -107 -257 0
-270 -96 -108 -258 0
-268 -97 -106 -259 0
-269 -98 -107 -260 0
-270 -99 -108 -261 0
-268 -100 -106 -262 0
-269 -101 -107 -263 0
-270 -102 -108 -264 0
-268 -103 -106 -265 0
-269 -104 -107 -266 0
-270 -105 -108 -267 0
-268 -111 -133 -246 0
-269 -110 -134 -245 0
-270 -109 -135 -244 0
-268 -112 -133 -247 0
-269 -113 -134 -248 0
-270 -114 -135 -249 0
-268 -115 -133 -250 0
-269 -116 -134 -251 0
-270 -117 -135 -252 0
-268 -118 -133 -253 0
-269 -119 -134 -254 0
-270 -120 -135 -255 0
-268 -121 -133 -256 0
-269 -122 -134 -257 0
-270 -123 -135 -258 0
-268 -124 -133 -259 0
-269 -125 -134 -260 0
-270 -126 -135 -261 0
-268 -127 -133 -262 0
-269 -128 -134 -263 0
-270 -129 -135 -264 0
-268 -130 -133 -265 0
-269 -131 -134 -266 0
-270 -132 -135 -267 0
-268 -138 -160 -246 0
-269 -137 -161 -245 0
-270 -136 -162 -244 0
-268 -139 -160 -247 0
-269 -140 -161 -248 0
-270 -141 -162 -249 0
-268 -142 -160 -250 0
-269 -143 -161 -251 0
-270 -144 -162 -252 0
-268 -145 -160 -253 0
-269 -146 -161 -254 0
-270 -147 -162 -255 0
-268 -148 -160 -256 0
-269 -149 -161 -257 0
-270 -150 -162 -258 0
-268 -151 -160 -259 0
-269 -152 -161 -260 0
-270 -153 -162 -261 0
-268 -154 -160 -262 0
-269 -155 -161 -263 0
-270 -156 -162 -264 0
-268 -157 -160 -265 0
-269 -158 -161 -266 0
-270 -159 -162 -267 0
-268 -165 -187 -246 0
-269 -164 -188 -245 0
-270 -163 -189 -244 0
-268 -166 -187 -247 0
-269 -167 -188 -248 0
-270 -168 -189 -249 0
-268 -169 -187 -250 0
-269 -170 -188 -251 0
-270 -171 -189 -252 0
-268 -172 -187 -253 0
-269 -173 -188 -254 0
-270 -174 -189 -255 0
-268 -175 -187 -256 0
-269 -176 -188 -257 0
-270 -177 -189 -258 0
-268 -178 -187 -259 0
-269 -179 -188 -260 0
-270 -180 -189 -261 0
-268 -181 -187 -262 0
-269 -182 -188 -263 0
-270 -183 -189 -264 0
-268 -184 -187 -265 0
-269 -185 -188 -266 0
-270 -186 -189 -267 0
-268 -192 -214 -246 0
-269 -191 -215 -245 0
-270 -190 -216 -244 0
-268 -193 -214 -247 0
-269 -194 -215 -248 0
-270 -195 -216 -249 0
-268 -196 -214 -250 0
-269 -197 -215 -251 0
-270 -198 -216 -252 0
-268 -199 -214 -253 0
-269 -200 -215 -254 0
-270 -201 -216 -255 0
-268 -202 -214 -256 0
-269 -203 -215 -257 0
-270 -204 -216 -258 0
-268 -205 -214 -259 0
-269 -206 -215 -260 0
-270 -207 -216 -261 0
-268 -208 -214 -262 0
-269 -209 -215 -263 0
-270 -210 -216 -264 0
-268 -211 -214 -265 0
-269 -212 -215 -266 0
-270 -213 -216 -267 0
-268 -219 -241 -246 0
-269 -218 -242 -245 0
-270 -217 -243 -244 0
-268 -220 -241 -247 0
-269 -221 -242 -248 0
-270 -222 -243 -249 0
-268 -223 -241 -250 0
-269 -224 -242 -251 0
-270 -225 -243 -252 0
-268 -226 -241 -253 0
-269 -227 -242 -254 0
-270 -228 -243 -255 0
-268 -229 -241 -256 0
-269 -230 -242 -257 0
-270 -231 -243 -258 0
-268 -232 -241 -259 0
-269 -233 -242 -260 0
-270 -234 -243 -261 0
-268 -235 -241 -262 0
-269 -236 -242 -263 0
-270 -237 -243 -264 0
-268 -238 -241 -265 0
-269 -239 -242 -266 0
-270 -240 -243 -267 0
-270 -269 0
-269 -268 0
-270 -268 0
268 269 270 0
-271 -272 0
-272 -273 0
-271 -273 0
273 272 271 0
-274 -3 -6 -273 0
-275 -2 -5 -272 0
-276 -1 -4 -271 0
-274 -30 -31 -273 0
-275 -29 -32 -272 0
-276 -28 -33 -271 0
-274 -57 -58 -273 0
-275 -56 -59 -272 0
-276 -55 -60 -271 0
-274 -84 -85 -273 0
-275 -83 -86 -272 0
-276 -82 -87 -271 0
-274 -111 -112 -273 0
-275 -110 -113 -272 0
-276 -109 -114 -271 0
-274 -138 -139 -273 0
-275 -137 -140 -272 0
-276 -136 -141 -271 0
-274 -165 -166 -273 0
-275 -164 -167 -272 0
-276 -163 -168 -271 0
-274 -192 -193 -273 0
-275 -191 -194 -272 0
-276 -190 -195 -271 0
-274 -219 -220 -273 0
-275 -218 -221 -272 0
-276 -217 -222 -271 0
-274 -246 -247 -273 0
-275 -245 -248 -272 0
-276 -244 -249 -271 0
-276 -275 0
-275 -274 0
-276 -274 0
274 275 276 0
-277 -3 -9 -273 0
-278 -2 -8 -272 0
-279 -1 -7 -271 0
-277 -6 -9 -274 0
-278 -5 -8 -275 0
-279 -4 -7 -276 0
-277 -30 -34 -273 0
-278 -29 -35 -272 0
-279 -28 -36 -271 0
-277 -31 -34 -274 0
-278 -32 -35 -275 0
-279 -33 -36 -276 0
-277 -57 -61 -273 0
-278 -56 -62 -272 0
-279 -55 -63 -271 0
-277 -58 -61 -274 0
-278 -59 -62 -275 0
-279 -60 -63 -276 0
-277 -84 -88 -273 0
-278 -83 -89 -272 0
-279 -82 -90 -271 0
-277 -85 -88 -274 0
-278 -86 -89 -275 0
-279 -87 -90 -276 0
-277 -111 -115 -273 0
-278 -110 -116 -272 0
-279 -109 -117 -271 0
-277 -112 -115 -274 0
-278 -113 -116 -275 0
-279 -114 -117 -276 0
-277 -138 -142 -273 0
-278 -137 -143 -272 0
-279 -136 -144 -271 0
-277 -139 -142 -274 0
-278 -140 -143 -275 0
-279 -141 -144 -276 0
-277 -165 -169 -273 0
-278 -164 -170 -272 0
-279 -163 -171 -271 0
-277 -166 -169 -274 0
-278 -167 -170 -275 0
-279 -168 -171 -276 0
-277 -192 -196 -273 0
-278 -191 -197 -272 0
-279 -190 -198 -271 0
-277 -193 -196 -274 0
-278 -194 -197 -275 0
-279 -195 -198 -276 0
-277 -219 -223 -273 0
-278 -218 -224 -272 0
-279 -217 -225 -271 0
-277 -220 -223 -274 0
-278 -221 -224 -275 0
-279 -222 -225 -276 0
-277 -246 -250 -273 0
-278 -245 -251 -272 0
-279 -244 -252 -271 0
-277 -247 -250 -274 0
-278 -248 -251 -275 0
-279 -249 -252 -276 0
-279 -278 0
-278 -277 0
-279 -277 0
277 278 279 0
-280 -3 -12 -273 0
-281 -2 -11 -272 0
-282 -1 -10 -271 0
-280 -6 -12 -274 0
-281 -5 -11 -275 0
-282 -4 -10 -276 0
-280 -9 -12 -277 0
-281 -8 -11 -278 0
-282 -7 -10 -279 0
-280 -30 -37 -273 0
-281 -29 -38 -272 0
-282 -28 -39 -271 0
-280 -31 -37 -274 0
-281 -32 -38 -275 0
-282 -33 -39 -276 0
-280 -34 -37 -277 0
-281 -35 -38 -278 0
-282 -36 -39 -279 0
-280 -57 -64 -273 0
-281 -56 -65 -272 0
-282 -55 -66 -271 0
-280 -58 -64 -274 0
-281 -59 -65 -275 0
-282 -60 -66 -276 0
-280 -61 -64 -277 0
-281 -62 -65 -278 0
-282 -63 -66 -279 0
-280 -84 -91 -273 0
-281 -83 -92 -272 0
-282 -82 -93 -271 0
-280 -85 -91 -274 0
-281 -86 -92 -275 0
-282 -87 -93 -276 0
-280 -88 -91 -277 0
-281 -89 -92 -278 0
-282 -90 -93 -279 0
-280 -111 -118 -273 0
-281 -110 -119 -272 0
-282 -109 -120 -271 0
-280 -112 -118 -274 0
-281 -113 -119 -275 0
-282 -114 -120 -276 0
-280 -115 -118 -277 0
-281 -116 -119 -278 0
-282 -117 -120 -279 0
-280 -138 -145 -273 0
-281 -137 -146 -272 0
-282 -136 -147 -271 0
-280 -139 -145 -274 0
-281 -140 -146 -275 0
-282 -141 -147 -276 0
-280 -142 -145 -277 0
-281 -143 -146 -278 0
-282 -144 -147 -279 0
-280 -165 -172 -273 0
-281 -164 -173 -272 0
-282 -163 -174 -271 0
-280 -166 -172 -274 0
-281 -167 -173 -275 0
-282 -168 -174 -276 0
-280 -169 -172 -277 0
-281 -170 -173 -278 0
-282 -171 -174 -279 0
-280 -192 -199 -273 0
-281 -191 -200 -272 0
-282 -190 -201 -271 0
-280 -193 -199 -274 0
-281 -194 -200 -275 0
-282 -195 -201 -276 0
-280 -196 -199 -277 0
-281 -197 -200 -278 0
-282 -198 -201 -279 0
-280 -219 -226 -273 0
-281 -218 -227 -272 0
-282 -217 -228 -271 0
-280 -220 -226 -274 0
-281 -221 -227 -275 0
-282 -222 -228 -276 0
-280 -223 -226 -277 0
-281 -224 -227 -278 0
-282 -225 -228 -279 0
-280 -246 -253 -273 0
-281 -245 -254 -272 0
-282 -244 -255 -271 0
-280 -247 -253 -274 0
-281 -248 -254 -275 0
-282 -249 -255 -276 0
-280 -250 -253 -277 0
-281 -251 -254 -278 0
-282 -252 -255 -279 0
-282 -281 0
-281 -280 0
-282 -280 0
280 281 282 0
-283 -3 -15 -273 0
-284 -2 -14 -272 0
-285 -1 -13 -271 0
-283 -6 -15 -274 0
-284 -5 -14 -275 0
-285 -4 -13 -276 0
-283 -9 -15 -277 0
-284 -8 -14 -278 0
-285 -7 -13 -279 0
-283 -12 -15 -280 0
-284 -11 -14 -281 0
-285 -10 -13 -282 0
-283 -30 -40 -273 0
-284 -29 -41 -272 0
-285 -28 -42 -271 0
-283 -31 -40 -274 0
-284 -32 -41 -275 0
-285 -33 -42 -276 0
-283 -34 -40 -277 0
-284 -35 -41 -278 0
-285 -36 -42 -279 0
-283 -37 -40 -280 0
-284 -38 -41 -281 0
-285 -39 -42 -282 0
-283 -57 -67 -273 0
-284 -56 -68 -272 0
-285 -55 -69 -271 0
-283 -58 -67 -274 0
-284 -59 -68 -275 0
-285 -60 -69 -276 0
-283 -61 -67 -277 0
-284 -62 -68 -278 0
-285 -63 -69 -279 0
-283 -64 -67 -280 0
-284 -65 -68 -281 0
-285 -66 -69 -282 0
-283 -84 -94 -273 0
-284 -83 -95 -272 0
-285 -82 -96 -271 0
-283 -85 -94 -274 0
-284 -86 -95 -275 0
-285 -87 -96 -276 0
-283 -88 -94 -277 0
-284 -89 -95 -278 0
-285 -90 -96 -279 0
-283 -91 -94 -280 0
-284 -92 -95 -281 0
-285 -93 -96 -282 0
-283 -111 -121 -273 0
-284 -110 -122 -272 0
-285 -109 -123 -271 0
-283 -112 -121 -274 0
-284 -113 -122 -275 0
-285 -114 -123 -276 0
-283 -115 -121 -277 0
-284 -116 -122 -278 0
-285 -117 -123 -279 0
-283 -118 -121 -280 0
-284 -119 -122 -281 0
-285 -120 -123 -282 0
-283 -138 -148 -273 0
-284 -137 -149 -272 0
-285 -136 -150 -271 0
-283 -139 -148 -274 0
-284 -140 -149 -275 0
-285 -141 -150 -276 0
-283 -142 -148 -277 0
-284 -143 -149 -278 0
-285 -144 -150 -279 0
-283 -145 -148 -280 0
-284 -146 -149 -281 0
-285 -147 -150 -282 0
-283 -165 -175 -273 0
-284 -164 -176 -272 0
-285 -163 -177 -271 0
-283 -166 -175 -274 0
-284 -167 -176 -275 0
-285 -168 -177 -276 0
-283 -169 -175 -277 0
-284 -170 -176 -278 0
-285 -171 -177 -279 0
-283 -172 -175 -280 0
-284 -173 -176 -281 0
-285 -174 -177 -282 0
-283 -192 -202 -273 0
-284 -191 -203 -272 0
-285 -190 -204 -271 0
-283 -193 -202 -274 0
-284 -194 -203 -275 0
-285 -195 -204 -276 0
-283 -196 -202 -277 0
-284 -197 -203 -278 0
-285 -198 -204 -279 0
-283 -199 -202 -280 0
-284 -200 -203 -281 0
-285 -201 -204 -282 0
-283 -219 -229 -273 0
-284 -218 -230 -272 0
-285 -217 -231 -271 0
-283 -220 -229 -274 0
-284 -221 -230 -275 0
-285 -222 -231 -276 0
-283 -223 -229 -277 0
-284 -224 -230 -278 0
-285 -225 -231 -279 0
-283 -226 -229 -280 0
-284 -227 -230 -281 0
-285 -228 -231 -282 0
-283 -246 -256 -273 0
-284 -245 -257 -272 0
-285 -244 -258 -271 0
-283 -247 -256 -274 0
-284 -248 -257 -275 0
-285 -249 -258 -276 0
-283 -250 -256 -277 0
-284 -251 -257 -278 0
-285 -252 -258 -279 0
-283 -253 -256 -280 0
-284 -254 -257 -281 0
-285 -255 -258 -282 0
-285 -284 0
-284 -283 0
-285 -283 0
283 284 285 0
-286 -3 -18 -273 0
-287 -2 -17 -272 0
-288 -1 -16 -271 0
-286 -6 -18 -274 0
-287 -5 -17 -275 0
-288 -4 -16 -276 0
-286 -9 -18 -277 0
-287 -8 -17 -278 0
-288 -7 -16 -279 0
-286 -12 -18 -280 0
-287 -11 -17 -281 0
-288 -10 -16 -282 0
-286 -15 -18 -283 0
-287 -14 -17 -284 0
-288 -13 -16 -285 0
-286 -30 -43 -273 0
-287 -29 -44 -272 0
-288 -28 -45 -271 0
-286 -31 -43 -274 0
-287 -32 -44 -275 0
-288 -33 -45 -276 0
-286 -34 -43 -277 0
-287 -35 -44 -278 0
-288 -36 -45 -279 0
-286 -37 -43 -280 0
-287 -38 -44 -281 0
-288 -39 -45 -282 0
-286 -40 -43 -283 0
-287 -41 -44 -284 0
-288 -42 -45 -285 0
-286 -57 -70 -273 0
-287 -56 -71 -272 0
-288 -55 -72 -271 0
-286 -58 -70 -274 0
-287 -59 -71 -275 0
-288 -60 -72 -276 0
-286 -61 -70 -277 0
-287 -62 -71 -278 0
-288 -63 -72 -279 0
-286 -64 -70 -280 0
-287 -65 -71 -281 0
-288 -66 -72 -282 0
-286 -67 -70 -283 0
-287 -68 -71 -284 0
-288 -69 -72 -285 0
-286 -84 -97 -273 0
-287 -83 -98 -272 0
-288 -82 -99 -271 0
-286 -85 -97 -274 0
-287 -86 -98 -275 0
-288 -87 -99 -276 0
-286 -88 -97 -277 0
-287 -89 -98 -278 0
-288 -90 -99 -279 0
-286 -91 -97 -280 0
-287 -92 -98 -281 0
-288 -93 -99 -282 0
-286 -94 -97 -283 0
-287 -95 -98 -284 0
-288 -96 -99 -285 0
-286 -111 -124 -273 0
-287 -110 -125 -272 0
-288 -109 -126 -271 0
-286 -112 -124 -274 0
-287 -113 -125 -275 0
-288 -114 -126 -276 0
-286 -115 -124 -277 0
-287 -116 -125 -278 0
-288 -117 -126 -279 0
-286 -118 -124 -280 0
-287 -119 -125 -281 0
-288 -120 -126 -282 0
-286 -121 -124 -283 0
-287 -122 -125 -284 0
-288 -123 -126 -285 0
-286 -138 -151 -273 0
-287 -137 -152 -272 0
-288 -136 -153 -271 0
-286 -139 -151 -274 0
-287 -140 -152 -275 0
-288 -141 -153 -276 0
-286 -142 -151 -277 0
-287 -143 -152 -278 0
-288 -144 -153 -279 0
-286 -145 -151 -280 0
-287 -146 -152 -281 0
-288 -147 -153 -282 0
-286 -148 -151 -283 0
-287 -149 -152 -284 0
-288 -150 -153 -285 0
-286 -165 -178 -273 0
-287 -164 -179 -272 0
-288 -163 -180 -271 0
-286 -166 -178 -274 0
-287 -167 -179 -275 0
-288 -168 -180 -276 0
-286 -169 -178 -277 0
-287 -170 -179 -278 0
-288 -171 -180 -279 0
-286 -172 -178 -280 0
-287 -173 -179 -281 0
-288 -174 -180 -282 0
-286 -175 -178 -283 0
-287 -176 -179 -284 0
-288 -177 -180 -285 0
-286 -192 -205 -273 0
-287 -191 -206 -272 0
-288 -190 -207 -271 0
-286 -193 -205 -274 0
-287 -194 -206 -275 0
-288 -195 -207 -276 0
-286 -196 -205 -277 0
-287 -197 -206 -278 0
-288 -198 -207 -279 0
-286 -199 -205 -280 0
-287 -200 -206 -281 0
-288 -201 -207 -282 0
-286 -202 -205 -283 0
-287 -203 -206 -284 0
-288 -204 -207 -285 0
-286 -219 -232 -273 0
-287 -218 -233 -272 0
-288 -217 -234 -271 0
-286 -220 -232 -274 0
-287 -221 -233 -275 0
-288 -222 -234 -276 0
-286 -223 -232 -277 0
-287 -224 -233 -278 0
-288 -225 -234 -279 0
-286 -226 -232 -280 0
-287 -227 -233 -281 0
-288 -228 -234 -282 0
-286 -229 -232 -283 0
-287 -230 -233 -284 0
-288 -231 -234 -285 0
-286 -246 -259 -273 0
-287 -245 -260 -272 0
-288 -244 -261 -271 0
-286 -247 -259 -274 0
-287 -248 -260 -275 0
-288 -249 -261 -276 0
-286 -250 -259 -277 0
-287 -251 -260 -278 0
-288 -252 -261 -279 0
-286 -253 -259 -280 0
-287 -254 -260 -281 0
-288 -255 -261 -282 0
-286 -256 -259 -283 0
-287 -257 -260 -284 0
-288 -258 -261 -285 0
-288 -287 0
-287 -286 0
-288 -286 0
286 287 288 0
-289 -3 -21 -273 0
-290 -2 -20 -272 0
-291 -1 -19 -271 0
-289 -6 -21 -274 0
-290 -5 -20 -275 0
-291 -4 -19 -276 0
-289 -9 -21 -277 0
-290 -8 -20 -278 0
-291 -7 -19 -279 0
-289 -12 -21 -280 0
-290 -11 -20 -281 0
-291 -10 -19 -282 0
-289 -15 -21 -283 0
-290 -14 -20 -284 0
-291 -13 -19 -285 0
-289 -18 -21 -286 0
-290 -17 -20 -287 0
-291 -16 -19 -288 0
-289 -30 -46 -273 0
-290 -29 -47 -272 0
-291 -28 -48 -271 0
-289 -31 -46 -274 0
-290 -32 -47 -275 0
-291 -33 -48 -276 0
-289 -34 -46 -277 0
-290 -35 -47 -278 0
-291 -36 -48 -279 0
-289 -37 -46 -280 0
-290 -38 -47 -281 0
-291 -39 -48 -282 0
-289 -40 -46 -283 0
-290 -41 -47 -284 0
-291 -42 -48 -285 0
-289 -43 -46 -286 0
-290 -44 -47 -287 0
-291 -45 -48 -288 0
-289 -57 -73 -273 0
-290 -56 -74 -272 0
-291 -55 -75 -271 0
-289 -58 -73 -274 0
-290 -59 -74 -275 0
-291 -60 -75 -276 0
-289 -61 -73 -277 0
-290 -62 -74 -278 0
-291 -63 -75 -279 0
-289 -64 -73 -280 0
-290 -65 -74 -281 0
-291 -66 -75 -282 0
-289 -67 -73 -283 0
-290 -68 -74 -284 0
-291 -69 -75 -285 0
-289 -70 -73 -286 0
-290 -71 -74 -287 0
-291 -72 -75 -288 0
-289 -84 -100 -273 0
-290 -83 -101 -272 0
-291 -82 -102 -271 0
-289 -85 -100 -274 0
-290 -86 -101 -275 0
-291 -87 -102 -276 0
-289 -88 -100 -277 0
-290 -89 -101 -278 0
-291 -90 -102 -279 0
-289 -91 -100 -280 0
-290 -92 -101 -281 0
-291 -93 -102 -282 0
-289 -94 -100 -283 0
-290 -95 -101 -284 0
-291 -96 -102 -285 0
-289 -97 -100 -286 0
-290 -98 -101 -287 0
-291 -99 -102 -288 0
-289 -111 -127 -273 0
-290 -110 -128 -272 0
-291 -109 -129 -271 0
-289 -112 -127 -274 0
-290 -113 -128 -275 0
-291 -114 -129 -276 0
-289 -115 -127 -277 0
-290 -116 -128 -278 0
-291 -117 -129 -279 0
-289 -118 -127 -280 0
-290 -119 -128 -281 0
-291 -120 -129 -282 0
-289 -121 -127 -283 0
-290 -122 -128 -284 0
-291 -123 -129 -285 0
-289 -124 -127 -286 0
-290 -125 -128 -287 0
-291 -126 -129 -288 0
-289 -138 -154 -273 0
-290 -137 -155 -272 0
-291 -136 -156 -271 0
-289 -139 -154 -274 0
-290 -140 -155 -275 0
-291 -141 -156 -276 0
-289 -142 -154 -277 0
-290 -143 -155 -278 0
-291 -144 -156 -279 0
-289 -145 -154 -280 0
-290 -146 -155 -281 0
-291 -147 -156 -282 0
-289 -148 -154 -283 0
-290 -149 -155 -284 0
-291 -150 -156 -285 0
-289 -151 -154 -286 0
-290 -152 -155 -287 0
-291 -153 -156 -288 0
-289 -165 -181 -273 0
-290 -164 -182 -272 0
-291 -163 -183 -271 0
-289 -166 -181 -274 0
-290 -167 -182 -275 0
-291 -168 -183 -276 0
-289 -169 -181 -277 0
-290 -170 -182 -278 0
-291 -171 -183 -279 0
-289 -172 -181 -280 0
-290 -173 -182 -281 0
-291 -174 -183 -282 0
-289 -175 -181 -283 0
-290 -176 -182 -284 0
-291 -177 -183 -285 0
-289 -178 -181 -286 0
-290 -179 -182 -287 0
-291 -180 -183 -288 0
-289 -192 -208 -273 0
-290 -191 -209 -272 0
-291 -190 -210 -271 0
-289 -193 -208 -274 0
-290 -194 -209 -275 0
-291 -195 -210 -276 0
-289 -196 -208 -277 0
-290 -197 -209 -278 0
-291 -198 -210 -279 0
-289 -199 -208 -280 0
-290 -200 -209 -281 0
-291 -201 -210 -282 0
-289 -202 -208 -283 0
-290 -203 -209 -284 0
-291 -204 -210 -285 0
-289 -205 -208 -286 0
-290 -206 -209 -287 0
-291 -207 -210 -288 0
-289 -219 -235 -273 0
-290 -218 -236 -272 0
-291 -217 -237 -271 0
-289 -220 -235 -274 0
-290 -221 -236 -275 0
-291 -222 -237 -276 0
-289 -223 -235 -277 0
-290 -224 -236 -278 0
-291 -225 -237 -279 0
-289 -226 -235 -280 0
-290 -227 -236 -281 0
-291 -228 -237 -282 0
-289 -229 -235 -283 0
-290 -230 -236 -284 0
-291 -231 -237 -285 0
-289 -232 -235 -286 0
-290 -233 -236 -287 0
-291 -234 -237 -288 0
-289 -246 -262 -273 0
-290 -245 -263 -272 0
-291 -244 -264 -271 0
-289 -247 -262 -274 0
-290 -248 -263 -275 0
-291 -249 -264 -276 0
-289 -250 -262 -277 0
-290 -251 -263 -278 0
-291 -252 -264 -279 0
-289 -253 -262 -280 0
-290 -254 -263 -281 0
-291 -255 -264 -282 0
-289 -256 -262 -283 0
-290 -257 -263 -284 0
-291 -258 -264 -285 0
-289 -259 -262 -286 0
-290 -260 -263 -287 0
-291 -261 -264 -288 0
-291 -290 0
-290 -289 0
-291 -289 0
289 290 291 0
-292 -3 -24 -273 0
-293 -2 -23 -272 0
-294 -1 -22 -271 0
-292 -6 -24 -274 0
-293 -5 -23 -275 0
-294 -4 -22 -276 0
-292 -9 -24 -277 0
-293 -8 -23 -278 0
-294 -7 -22 -279 0
-292 -12 -24 -280 0
-293 -11 -23 -281 0
-294 -10 -22 -282 0
-292 -15 -24 -283 0
-293 -14 -23 -284 0
-294 -13 -22 -285 0
-292 -18 -24 -286 0
-293 -17 -23 -287 0
-294 -16 -22 -288 0
-292 -21 -24 -289 0
-293 -20 -23 -290 0
-294 -19 -22 -291 0
-292 -30 -49 -273 0
-293 -29 -50 -272 0
-294 -28 -51 -271 0
-292 -31 -49 -274 0
-293 -32 -50 -275 0
-294 -33 -51 -276 0
-292 -34 -49 -277 0
-293 -35 -50 -278 0
-294 -36 -51 -279 0
-292 -37 -49 -280 0
-293 -38 -50 -281 0
-294 -39 -51 -282 0
-292 -40 -49 -283 0
-293 -41 -50 -284 0
-294 -42 -51 -285 0
-292 -43 -49 -286 0
-293 -44 -50 -287 0
-294 -45 -51 -288 0
-292 -46 -49 -289 0
-293 -47 -50 -290 0
-294 -48 -51 -291 0
-292 -57 -76 -273 0
-293 -56 -77 -272 0
-294 -55 -78 -271 0
-292 -58 -76 -274 0
-293 -59 -77 -275 0
-294 -60 -78 -276 0
-292 -61 -76 -277 0
-293 -62 -77 -278 0
-294 -63 -78 -279 0
-292 -64 -76 -280 0
-293 -65 -77 -281 0
-294 -66 -78 -282 0
-292 -67 -76 -283 0
-293 -68 -77 -284 0
-294 -69 -78 -285 0
-292 -70 -76 -286 0
-293 -71 -77 -287 0
-294 -72 -78 -288 0
-292 -73 -76 -289 0
-293 -74 -77 -290 0
-294 -75 -78 -291 0
-292 -84 -103 -273 0
-293 -83 -104 -272 0
-294 -82 -105 -271 0
-292 -85 -103 -274 0
-293 -86 -104 -275 0
-294 -87 -105 -276 0
-292 -88 -103 -277 0
-293 -89 -104 -278 0
-294 -90 -105 -279 0
-292 -91 -103 -280 0
-293 -92 -104 -281 0
-294 -93 -105 -282 0
-292 -94 -103 -283 0
-293 -95 -104 -284 0
-294 -96 -105 -285 0
-292 -97 -103 -286 0
-293 -98 -104 -287 0
-294 -99 -105 -288 0
-292 -100 -103 -289 0
-293 -101 -104 -290 0
-294 -102 -105 -291 0
-292 -111 -130 -273 0
-293 -110 -131 -272 0
-294 -109 -132 -271 0
-292 -112 -130 -274 0
-293 -113 -131 -275 0
-294 -114 -132 -276 0
-292 -115 -130 -277 0
-293 -116 -131 -278 0
-294 -117 -132 -279 0
-292 -118 -130 -280 0
-293 -119 -131 -281 0
-294 -120 -132 -282 0
-292 -121 -130 -283 0
-293 -122 -131 -284 0
-294 -123 -132 -285 0
-292 -124 -130 -286 0
-293 -125 -131 -287 0
-294 -126 -132 -288 0
-292 -127 -130 -289 0
-293 -128 -131 -290 0
-294 -129 -132 -291 0
-292 -138 -157 -273 0
-293 -137 -158 -272 0
-294 -136 -159 -271 0
-292 -139 -157 -274 0
-293 -140 -158 -275 0
-294 -141 -159 -276 0
-292 -142 -157 -277 0
-293 -143 -158 -278 0
-294 -144 -159 -279 0
-292 -145 -157 -280 0
-293 -146 -158 -281 0
-294 -147 -159 -282 0
-292 -148 -157 -283 0
-293 -149 -158 -284 0
-294 -150 -159 -285 0
-292 -151 -157 -286 0
-293 -152 -158 -287 0
-294 -153 -159 -288 0
-292 -154 -157 -289 0
-293 -155 -158 -290 0
-294 -156 -159 -291 0
-292 -165 -184 -273 0
-293 -164 -185 -272 0
-294 -163 -186 -271 0
-292 -166 -184 -274 0
-293 -167 -185 -275 0
-294 -168 -186 -276 0
-292 -169 -184 -277 0
-293 -170 -185 -278 0
-294 -171 -186 -279 0
-292 -172 -184 -280 0
-293 -173 -185 -281 0
-294 -174 -186 -282 0
-292 -175 -184 -283 0
-293 -176 -185 -284 0
-294 -177 -186 -285 0
-292 -178 -184 -286 0
-293 -179 -185 -287 0
-294 -180 -186 -288 0
-292 -181 -184 -289 0
-293 -182 -185 -290 0
-294 -183 -186 -291 0
-292 -192 -211 -273 0
-293 -191 -212 -272 0
-294 -190 -213 -271 0
-292 -193 -211 -274 0
-293 -194 -212 -275 0
-294 -195 -213 -276 0
-292 -196 -211 -277 0
-293 -197 -212 -278 0
-294 -198 -213 -279 0
-292 -199 -211 -280 0
-293 -200 -212 -281 0
-294 -201 -213 -282 0
-292 -202 -211 -283 0
-293 -203 -212 -284 0
-294 -204 -213 -285 0
-292 -205 -211 -286 0
-293 -206 -212 -287 0
-294 -207 -213 -288 0
-292 -208 -211 -289 0
-293 -209 -212 -290 0
-294 -210 -213 -291 0
-292 -219 -238 -273 0
-293 -218 -239 -272 0
-294 -217 -240 -271 0
-292 -220 -238 -274 0
-293 -221 -239 -275 0
-294 -222 -240 -276 0
-292 -223 -238 -277 0
-293 -224 -239 -278 0
-294 -225 -240 -279 0
-292 -226 -238 -280 0
-293 -227 -239 -281 0
-294 -228 -240 -282 0
-292 -229 -238 -283 0
-293 -230 -239 -284 0
-294 -231 -240 -285 0
-292 -232 -238 -286 0
-293 -233 -239 -287 0
-294 -234 -240 -288 0
-292 -235 -238 -289 0
-293 -236 -239 -290 0
-294 -237 -240 -291 0
-292 -246 -265 -273 0
-293 -245 -266 -272 0
-294 -244 -267 -271 0
-292 -247 -265 -274 0
-293 -248 -266 -275 0
-294 -249 -267 -276 0
-292 -250 -265 -277 0
-293 -251 -266 -278 0
-294 -252 -267 -279 0
-292 -253 -265 -280 0
-293 -254 -266 -281 0
-294 -255 -267 -282 0
-292 -256 -265 -283 0
-293 -257 -266 -284 0
-294 -258 -267 -285 0
-292 -259 -265 -286 0
-293 -260 -266 -287 0
-294 -261 -267 -288 0
-292 -262 -265 -289 0
-293 -263 -266 -290 0
-294 -264 -267 -291 0
-294 -293 0
-293 -292 0
-294 -292 0
292 293 294 0
-295 -3 -27 -273 0
-296 -2 -26 -272 0
-297 -1 -25 -271 0
-295 -6 -27 -274 0
-296 -5 -26 -275 0
-297 -4 -25 -276 0
-295 -9 -27 -277 0
-296 -8 -26 -278 0
-297 -7 -25 -279 0
-295 -12 -27 -280 0
-296 -11 -26 -281 0
-297 -10 -25 -282 0
-295 -15 -27 -283 0
-296 -14 -26 -284 0
-297 -13 -25 -285 0
-295 -18 -27 -286 0
-296 -17 -26 -287 0
-297 -16 -25 -288 0
-295 -21 -27 -289 0
-296 -20 -26 -290 0
-297 -19 -25 -291 0
-295 -24 -27 -292 0
-296 -23 -26 -293 0
-297 -22 -25 -294 0
-295 -30 -52 -273 0
-296 -29 -53 -272 0
-297 -28 -54 -271 0
-295 -31 -52 -274 0
-296 -32 -53 -275 0
-297 -33 -54 -276 0
-295 -34 -52 -277 0
-296 -35 -53 -278 0
-297 -36 -54 -279 0
-295 -37 -52 -280 0
-296 -38 -53 -281 0
-297 -39 -54 -282 0
-295 -40 -52 -283 0
-296 -41 -53 -284 0
-297 -42 -54 -285 0
-295 -43 -52 -286 0
-296 -44 -53 -287 0
-297 -45 -54 -288 0
-295 -46 -52 -289 0
-296 -47 -53 -290 0
-297 -48 -54 -291 0
-295 -49 -52 -292 0
-296 -50 -53 -293 0
-297 -51 -54 -294 0
-295 -57 -79 -273 0
-296 -56 -80 -272 0
-297 -55 -81 -271 0
-295 -58 -79 -274 0
-296 -59 -80 -275 0
-297 -60 -81 -276 0
-295 -61 -79 -277 0
-296 -62 -80 -278 0
-297 -63 -81 -279 0
-295 -64 -79 -280 0
-296 -65 -80 -281 0
-297 -66 -81 -282 0
-295 -67 -79 -283 0
-296 -68 -80 -284 0
-297 -69 -81 -285 0
-295 -70 -79 -286 0
-296 -71 -80 -287 0
-297 -72 -81 -288 0
-295 -73 -79 -289 0
-296 -74 -80 -290 0
-297 -75 -81 -291 0
-295 -76 -79 -292 0
-296 -77 -80 -293 0
-297 -78 -81 -294 0
-295 -84 -106 -273 0
-296 -83 -107 -272 0
-297 -82 -108 -271 0
-295 -85 -106 -274 0
-296 -86 -107 -275 0
-297 -87 -108 -276 0
-295 -88 -106 -277 0
-296 -89 -107 -278 0
-297 -90 -108 -279 0
-295 -91 -106 -280 0
-296 -92 -107 -281 0
-297 -93 -108 -282 0
-295 -94 -106 -283 0
-296 -95 -107 -284 0
-297 -96 -108 -285 0
-295 -97 -106 -286 0
-296 -98 -107 -287 0
-297 -99 -108 -288 0
-295 -100 -106 -289 0
-296 -101 -107 -290 0
-297 -102 -108 -291 0
-295 -103 -106 -292 0
-296 -104 -107 -293 0
-297 -105 -108 -294 0
-295 -111 -133 -273 0
-296 -110 -134 -272 0
-297 -109 -135 -271 0
-295 -112 -133 -274 0
-296 -113 -134 -275 0
-297 -114 -135 -276 0
-295 -115 -133 -277 0
-296 -116 -134 -278 0
-297 -117 -135 -279 0
-295 -118 -133 -280 0
-296 -119 -134 -281 0
-297 -120 -135 -282 0
-295 -121 -133 -283 0
-296 -122 -134 -284 0
-297 -123 -135 -285 0
-295 -124 -133 -286 0
-296 -125 -134 -287 0
-297 -126 -135 -288 0
-295 -127 -133 -289 0
-296 -128 -134 -290 0
-297 -129 -135 -291 0
-295 -130 -133 -292 0
-296 -131 -134 -293 0
-297 -132 -135 -294 0
-295 -138 -160 -273 0
-296 -137 -161 -272 0
-297 -136 -162 -271 0
-295 -139 -160 -274 0
-296 -140 -161 -275 0
-297 -141 -162 -276 0
-295 -142 -160 -277 0
-296 -143 -161 -278 0
-297 -144 -162 -279 0
-295 -145 -160 -280 0
-296 -146 -161 -281 0
-297 -147 -162 -282 0
-295 -148 -160 -283 0
-296 -149 -161 -284 0
-297 -150 -162 -285 0
-295 -151 -160 -286 0
-296 -152 -161 -287 0
-297 -153 -162 -288 0
-295 -154 -160 -289 0
-296 -155 -161 -290 0
-297 -156 -162 -291 0
-295 -157 -160 -292 0
-296 -158 -161 -293 0
-297 -159 -162 -294 0
-295 -165 -187 -273 0
-296 -164 -188 -272 0
-297 -163 -189 -271 0
-295 -166 -187 -274 0
-296 -167 -188 -275 0
-297 -168 -189 -276 0
-295 -169 -187 -277 0
-296 -170 -188 -278 0
-297 -171 -189 -279 0
-295 -172 -187 -280 0
-296 -173 -188 -281 0
-297 -174 -189 -282 0
-295 -175 -187 -283 0
-296 -176 -188 -284 0
-297 -177 -189 -285 0
-295 -178 -187 -286 0
-296 -179 -188 -287 0
-297 -180 -189 -288 0
-295 -181 -187 -289 0
-296 -182 -188 -290 0
-297 -183 -189 -291 0
-295 -184 -187 -292 0
-296 -185 -188 -293 0
-297 -186 -189 -294 0
-295 -192 -214 -273 0
-296 -191 -215 -272 0
-297 -190 -216 -271 0
-295 -193 -214 -274 0
-296 -194 -215 -275 0
-297 -195 -216 -276 0
-295 -196 -214 -277 0
-296 -197 -215 -278 0
-297 -198 -216 -279 0
-295 -199 -214 -280 0
-296 -200 -215 -281 0
-297 -201 -216 -282 0
-295 -202 -214 -283 0
-296 -203 -215 -284 0
-297 -204 -216 -285 0
-295 -205 -214 -286 0
-296 -206 -215 -287 0
-297 -207 -216 -288 0
-295 -208 -214 -289 0
-296 -209 -215 -290 0
-297 -210 -216 -291 0
-295 -211 -214 -292 0
-296 -212 -215 -293 0
-297 -213 -216 -294 0
-295 -219 -241 -273 0
-296 -218 -242 -272 0
-297 -217 -243 -271 0
-295 -220 -241 -274 0
-296 -221 -242 -275 0
-297 -222 -243 -276 0
-295 -223 -241 -277 0
-296 -224 -242 -278 0
-297 -225 -243 -279 0
-295 -226 -241 -280 0
-296 -227 -242 -281 0
-297 -228 -243 -282 0
-295 -229 -241 -283 0
-296 -230 -242 -284 0
-297 -231 -243 -285 0
-295 -232 -241 -286 0
-296 -233 -242 -287 0
-297 -234 -243 -288 0
-295 -235 -241 -289 0
-296 -236 -242 -290 0
-297 -237 -243 -291 0
-295 -238 -241 -292 0
-296 -239 -242 -293 0
-297 -240 -243 -294 0
-295 -246 -268 -273 0
-296 -245 -269 -272 0
-297 -244 -270 -271 0
-295 -247 -268 -274 0
-296 -248 -269 -275 0
-297 -249 -270 -276 0
-295 -250 -268 -277 0
-296 -251 -269 -278 0
-297 -252 -270 -279 0
-295 -253 -268 -280 0
-296 -254 -269 -281 0
-297 -255 -270 -282 0
-295 -256 -268 -283 0
-296 -257 -269 -284 0
-297 -258 -270 -285 0
-295 -259 -268 -286 0
-296 -260 -269 -287 0
-297 -261 -270 -288 0
-295 -262 -268 -289 0
-296 -263 -269 -290 0
-297 -264 -270 -291 0
-295 -265 -268 -292 0
-296 -266 -269 -293 0
-297 -267 -270 -294 0
-297 -296 0
-296 -295 0
-297 -295 0
295 296 297 0
-298 -299 0
-299 -300 0
-298 -300 0
300 299 298 0
-301 -3 -6 -300 0
-302 -2 -5 -299 0
-303 -1 -4 -298 0
-301 -30 -31 -300 0
-302 -29 -32 -299 0
-303 -28 -33 -298 0
-301 -57 -58 -300 0
-302 -56 -59 -299 0
-303 -55 -60 -298 0
-301 -84 -85 -300 0
-302 -83 -86 -299 0
-303 -82 -87 -298 0
-301 -111 -112 -300 0
-302 -110 -113 -299 0
-303 -109 -114 -298 0
-301 -138 -139 -300 0
-302 -137 -140 -299 0
-303 -136 -141 -298 0
-301 -165 -166 -300 0
-302 -164 -167 -299 0
-303 -163 -168 -298 0
-301 -192 -193 -300 0
-302 -191 -194 -299 0
-303 -190 -195 -298 0
-301 -219 -220 -300 0
-302 -218 -221 -299 0
-303 -217 -222 -298 0
-301 -246 -247 -300 0
-302 -245 -248 -299 0
-303 -244 -249 -298 0
-301 -273 -274 -300 0
-302 -272 -275 -299 0
-303 -271 -276 -298 0
-303 -302 0
-302 -301 0
-303 -301 0
301 302 303 0
-304 -3 -9 -300 0
-305 -2 -8 -299 0
-306 -1 -7 -298 0
-304 -6 -9 -301 0
-305 -5 -8 -302 0
-306 -4 -7 -303 0
-304 -30 -34 -300 0
-305 -29 -35 -299 0
-306 -28 -36 -298 0
-304 -31 -34 -301 0
-305 -32 -35 -302 0
-306 -33 -36 -303 0
-304 -57 -61 -300 0
-305 -56 -62 -299 0
-306 -55 -63 -298 0
-304 -58 -61 -301 0
-305 -59 -62 -302 0
-306 -60 -63 -303 0
-304 -84 -88 -300 0
-305 -83 -89 -299 0
-306 -82 -90 -298 0
-304 -85 -88 -301 0
-305 -86 -89 -302 0
-306 -87 -90 -303 0
-304 -111 -115 -300 0
-305 -110 -116 -299 0
-306 -109 -117 -298 0
-304 -112 -115 -301 0
-305 -113 -116 -302 0
-306 -114 -117 -303 0
-304 -138 -142 -300 0
-305 -137 -143 -299 0
-306 -136 -144 -298 0
-304 -139 -142 -301 0
-305 -140 -143 -302 0
-306 -141 -144 -303 0
-304 -165 -169 -300 0
-305 -164 -170 -299 0
-306 -163 -171 -298 0
-304 -166 -169 -301 0
-305 -167 -170 -302 0
-306 -168 -171 -303 0
-304 -192 -196 -300 0
-305 -191 -197 -299 0
-306 -190 -198 -298 0
-304 -193 -196 -301 0
-305 -194 -197 -302 0
-306 -195 -198 -303 0
-304 -219 -223 -300 0
-305 -218 -224 -299 0
-306 -217 -225 -298 0
-304 -220 -223 -301 0
-305 -221 -224 -302 0
-306 -222 -225 -303 0
-304 -246 -250 -300 0
-305 -245 -251 -299 0
-306 -244 -252 -298 0
-304 -247 -250 -301 0
-305 -248 -251 -302 0
-306 -249 -252 -303 0
-304 -273 -277 -300 0
-305 -272 -278 -299 0
-306 -271 -279 -298 0
-304 -274 -277 -301 0
-305 -275 -278 -302 0
-306 -276 -279 -303 0
-306 -305 0
-305 -304 0
-306 -304 0
304 305 306 0
-307 -3 -12 -300 0
-308 -2 -11 -299 0
-309 -1 -10 -298 0
-307 -6 -12 -301 0
-308 -5 -11 -302 0
-309 -4 -10 -303 0
-307 -9 -12 -304 0
-308 -8 -11 -305 0
-309 -7 -10 -306 0
-307 -30 -37 -300 0
-308 -29 -38 -299 0
-309 -28 -39 -298 0
-307 -31 -37 -301 0
-308 -32 -38 -302 0
-309 -33 -39 -303 0
-307 -34 -37 -304 0
-308 -35 -38 -305 0
-309 -36 -39 -306 0
-307 -57 -64 -300 0
-308 -56 -65 -299 0
-309 -55 -66 -298 0
-307 -58 -64 -301 0
-308 -59 -65 -302 0
-309 -60 -66 -303 0
-307 -61 -64 -304 0
-308 -62 -65 -305 0
-309 -63 -66 -306 0
-307 -84 -91 -300 0
-308 -83 -92 -299 0
-309 -82 -93 -298 0
-307 -85 -91 -301 0
-308 -86 -92 -302 0
-309 -87 -93 -303 0
-307 -88 -91 -304 0
-308 -89 -92 -305 0
-309 -90 -93 -306 0
-307 -111 -118 -300 0
-308 -110 -119 -299 0
-309 -109 -120 -298 0
-307 -112 -118 -301 0
-308 -113 -119 -302 0
-309 -114 -120 -303 0
-307 -115 -118 -304 0
-308 -116 -119 -305 0
-309 -117 -120 -306 0
-307 -138 -145 -300 0
-308 -137 -146 -299 0
-309 -136 -147 -298 0
-307 -139 -145 -301 0
-308 -140 -146 -302 0
-309 -141 -147 -303 0
-307 -142 -145 -304 0
-308 -143 -146 -305 0
-309 -144 -147 -306 0
-307 -165 -172 -300 0
-308 -164 -173 -299 0
-309 -163 -174 -298 0
-307 -166 -172 -301 0
-308 -167 -173 -302 0
-309 -168 -174 -303 0
-307 -169 -172 -304 0
-308 -170 -173 -305 0
-309 -171 -174 -306 0
-307 -192 -199 -300 0
-308 -191 -200 -299 0
-309 -190 -201 -298 0
-307 -193 -199 -301 0
-308 -194 -200 -302 0
-309 -195 -201 -303 0
-307 -196 -199 -304 0
-308 -197 -200 -305 0
-309 -198 -201 -306 0
-307 -219 -226 -300 0
-308 -218 -227 -299 0
-309 -217 -228 -298 0
-307 -220 -226 -301 0
-308 -221 -227 -302 0
-309 -222 -228 -303 0
-307 -223 -226 -304 0
-308 -224 -227 -305 0
-309 -225 -228 -306 0
-307 -246 -253 -300 0
-308 -245 -254 -299 0
-309 -244 -255 -298 0
-307 -247 -253 -301 0
-308 -248 -254 -302 0
-309 -249 -255 -303 0
-307 -250 -253 -304 0
-308 -251 -254 -305 0
-309 -252 -255 -306 0
-307 -273 -280 -300 0
-308 -272 -281 -299 0
-309 -271 -282 -298 0
-307 -274 -280 -301 0
-308 -275 -281 -302 0
-309 -276 -282 -303 0
-307 -277 -280 -304 0
-308 -278 -281 -305 0
-309 -279 -282 -306 0
-309 -308 0
-308 -307 0
-309 -307 0
307 308 309 0
-310 -3 -15 -300 0
-311 -2 -14 -299 0
-312 -1 -13 -298 0
-310 -6 -15 -301 0
-311 -5 -14 -302 0
-312 -4 -13 -303 0
-310 -9 -15 -304 0
-311 -8 -14 -305 0
-312 -7 -13 -306 0
-310 -12 -15 -307 0
-311 -11 -14 -308 0
-312 -10 -13 -309 0
-310 -30 -40 -300 0
-311 -29 -41 -299 0
-312 -28 -42 -298 0
-310 -31 -40 -301 0
-311 -32 -41 -302 0
-312 -33 -42 -303 0
-310 -34 -40 -304 0
-311 -35 -41 -305 0
-312 -36 -42 -306 0
-310 -37 -40 -307 0
-311 -38 -41 -308 0
-312 -39 -42 -309 0
-310 -57 -67 -300 0
-311 -56 -68 -299 0
-312 -55 -69 -298 0
-310 -58 -67 -301 0
-311 -59 -68 -302 0
-312 -60 -69 -303 0
-310 -61 -67 -304 0
-311 -62 -68 -305 0
-312 -63 -69 -306 0
-310 -64 -67 -307 0
-311 -65 -68 -308 0
-312 -66 -69 -309 0
-310 -84 -94 -300 0
-311 -83 -95 -299 0
-312 -82 -96 -298 0
-310 -85 -94 -301 0
-311 -86 -95 -302 0
-312 -87 -96 -303 0
-310 -88 -94 -304 0
-311 -89 -95 -305 0
-312 -90 -96 -306 0
-310 -91 -94 -307 0
-311 -92 -95 -308 0
-312 -93 -96 -309 0
-310 -111 -121 -300 0
-311 -110 -122 -299 0
-312 -109 -123 -298 0
-310 -112 -121 -301 0
-311 -113 -122 -302 0
-312 -114 -123 -303 0
-310 -115 -121 -304 0
-311 -116 -122 -305 0
-312 -117 -123 -306 0
-310 -118 -121 -307 0
-311 -119 -122 -308 0
-312 -120 -123 -309 0
-310 -138 -148 -300 0
-311 -137 -149 -299 0
-312 -136 -150 -298 0
-310 -139 -148 -301 0
-311 -140 -149 -302 0
-312 -141 -150 -303 0
-310 -142 -148 -304 0
-311 -143 -149 -305 0
-312 -144 -150 -306 0
-310 -145 -148 -307 0
-311 -146 -149 -308 0
-312 -147 -150 -309 0
-310 -165 -175 -300 0
-311 -164 -176 -299 0
-312 -163 -177 -298 0
-310 -166 -175 -301 0
-311 -167 -176 -302 0
-312 -168 -177 -303 0
-310 -169 -175 -304 0
-311 -170 -176 -305 0
-312 -171 -177 -306 0
-310 -172 -175 -307 0
-311 -173 -176 -308 0
-312 -174 -177 -309 0
-310 -192 -202 -300 0
-311 -191 -203 -299 0
-312 -190 -204 -298 0
-310 -193 -202 -301 0
-311 -194 -203 -302 0
-312 -195 -204 -303 0
-310 -196 -202 -304 0
-311 -197 -203 -305 0
-312 -198 -204 -306 0
-310 -199 -202 -307 0
-311 -200 -203 -308 0
-312 -201 -204 -309 0
-310 -219 -229 -300 0
-311 -218 -230 -299 0
-312 -217 -231 -298 0
-310 -220 -229 -301 0
-311 -221 -230 -302 0
-312 -222 -231 -303 0
-310 -223 -229 -304 0
-311 -224 -230 -305 0
-312 -225 -231 -306 0
-310 -226 -229 -307 0
-311 -227 -230 -308 0
-312 -228 -231 -309 0
-310 -246 -256 -300 0
-311 -245 -257 -299 0
-312 -244 -258 -298 0
-310 -247 -256 -301 0
-311 -248 -257 -302 0
-312 -249 -258 -303 0
-310 -250 -256 -304 0
-311 -251 -257 -305 0
-312 -252 -258 -306 0
-310 -253 -256 -307 0
-311 -254 -257 -308 0
-312 -255 -258 -309 0
-310 -273 -283 -300 0
-311 -272 -284 -299 0
-312 -271 -285 -298 0
-310 -274 -283 -301 0
-311 -275 -284 -302 0
-312 -276 -285 -303 0
-310 -277 -283 -304 0
-311 -278 -284 -305 0
-312 -279 -285 -306 0
-310 -280 -283 -307 0
-311 -281 -284 -308 0
-312 -282 -285 -309 0
-312 -311 0
-311 -310 0
-312 -310 0
310 311 312 0
-313 -3 -18 -300 0
-314 -2 -17 -299 0
-315 -1 -16 -298 0
-313 -6 -18 -301 0
-314 -5 -17 -302 0
-315 -4 -16 -303 0
-313 -9 -18 -304 0
-314 -8 -17 -305 0
-315 -7 -16 -306 0
-313 -12 -18 -307 0
-314 -11 -17 -308 0
-315 -10 -16 -309 0
-313 -15 -18 -310 0
-314 -14 -17 -311 0
-315 -13 -16 -312 0
-313 -30 -43 -300 0
-314 -29 -44 -299 0
-315 -28 -45 -298 0
-313 -31 -43 -301 0
-314 -32 -44 -302 0
-315 -33 -45 -303 0
-313 -34 -43 -304 0
-314 -35 -44 -305 0
-315 -36 -45 -306 0
-313 -37 -43 -307 0
-314 -38 -44 -308 0
-315 -39 -45 -309 0
-313 -40 -43 -310 0
-314 -41 -44 -311 0
-315 -42 -45 -312 0
-313 -57 -70 -300 0
-314 -56 -71 -299 0
-315 -55 -72 -298 0
-313 -58 -70 -301 0
-314 -59 -71 -302 0
-315 -60 -72 -303 0
-313 -61 -70 -304 0
-314 -62 -71 -305 0
-315 -63 -72 -306 0
-313 -64 -70 -307 0
-314 -65 -71 -308 0
-315 -66 -72 -309 0
-313 -67 -70 -310 0
-314 -68 -71 -311 0
-315 -69 -72 -312 0
-313 -84 -97 -300 0
-314 -83 -98 -299 0
-315 -82 -99 -298 0
-313 -85 -97 -301 0
-314 -86 -98 -302 0
-315 -87 -99 -303 0
-313 -88 -97 -304 0
-314 -89 -98 -305 0
-315 -90 -99 -306 0
-313 -91 -97 -307 0
-314 -92 -98 -308 0
-315 -93 -99 -309 0
-313 -94 -97 -310 0
-314 -95 -98 -311 0
-315 -96 -99 -312 0
-313 -111 -124 -300 0
-314 -110 -125 -299 0
-315 -109 -126 -298 0
-313 -112 -124 -301 0
-314 -113 -125 -302 0
-315 -114 -126 -303 0
-313 -115 -124 -304 0
-314 -116 -125 -305 0
-315 -117 -126 -306 0
-313 -118 -124 -307 0
-314 -119 -125 -308 0
-315 -120 -126 -309 0
-313 -121 -124 -310 0
-314 -122 -125 -311 0
-315 -123 -126 -312 0
-313 -138 -151 -300 0
-314 -137 -152 -299 0
-315 -136 -153 -298 0
-313 -139 -151 -301 0
-314 -140 -152 -302 0
-315 -141 -153 -303 0
-313 -142 -151 -304 0
-314 -143 -152 -305 0
-315 -144 -153 -306 0
-313 -145 -151 -307 0
-314 -146 -152 -308 0
-315 -147 -153 -309 0
-313 -148 -151 -310 0
-314 -149 -152 -311 0
-315 -150 -153 -312 0
-313 -165 -178 -300 0
-314 -164 -179 -299 0
-315 -163 -180 -298 0
-313 -166 -178 -301 0
-314 -167 -179 -302 0
-315 -168 -180 -303 0
-313 -169 -178 -304 0
-314 -170 -179 -305 0
-315 -171 -180 -306 0
-313 -172 -178 -307 0
-314 -173 -179 -308 0
-315 -174 -180 -309 0
-313 -175 -178 -310 0
-314 -176 -179 -311 0
-315 -177 -180 -312 0
-313 -192 -205 -300 0
-314 -191 -206 -299 0
-315 -190 -207 -298 0
-313 -193 -205 -301 0
-314 -194 -206 -302 0
-315 -195 -207 -303 0
-313 -196 -205 -304 0
-314 -197 -206 -305 0
-315 -198 -207 -306 0
-313 -199 -205 -307 0
-314 -200 -206 -308 0
-315 -201 -207 -309 0
-313 -202 -205 -310 0
-314 -203 -206 -311 0
-315 -204 -207 -312 0
-313 -219 -232 -300 0
-314 -218 -233 -299 0
-315 -217 -234 -298 0
-313 -220 -232 -301 0
-314 -221 -233 -302 0
-315 -222 -234 -303 0
-313 -223 -232 -304 0
-314 -224 -233 -305 0
-315 -225 -234 -306 0
-313 -226 -232 -307 0
-314 -227 -233 -308 0
-315 -228 -234 -309 0
-313 -229 -232 -310 0
-314 -230 -233 -311 0
-315 -231 -234 -312 0
-313 -246 -259 -300 0
-314 -245 -260 -299 0
-315 -244 -261 -298 0
-313 -247 -259 -301 0
-314 -248 -260 -302 0
-315 -249 -261 -303 0
-313 -250 -259 -304 0
-314 -251 -260 -305 0
-315 -252 -261 -306 0
-313 -253 -259 -307 0
-314 -254 -260 -308 0
-315 -255 -261 -309 0
-313 -256 -259 -310 0
-314 -257 -260 -311 0
-315 -258 -261 -312 0
-313 -273 -286 -300 0
-314 -272 -287 -299 0
-315 -271 -288 -298 0
-313 -274 -286 -301 0
-314 -275 -287 -302 0
-315 -276 -288 -303 0
-313 -277 -286 -304 0
-314 -278 -287 -305 0
-315 -279 -288 -306 0
-313 -280 -286 -307 0
-314 -281 -287 -308 0
-315 -282 -288 -309 0
-313 -283 -286 -310 0
-314 -284 -287 -311 0
-315 -285 -288 -312 0
-315 -314 0
-314 -313 0
-315 -313 0
313 314 315 0
-316 -3 -21 -300 0
-317 -2 -20 -299 0
-318 -1 -19 -298 0
-316 -6 -21 -301 0
-317 -5 -20 -302 0
-318 -4 -19 -303 0
-316 -9 -21 -304 0
-317 -8 -20 -305 0
-318 -7 -19 -306 0
-316 -12 -21 -307 0
-317 -11 -20 -308 0
-318 -10 -19 -309 0
-316 -15 -21 -310 0
-317 -14 -20 -311 0
-318 -13 -19 -312 0
-316 -18 -21 -313 0
-317 -17 -20 -314 0
-318 -16 -19 -315 0
-316 -30 -46 -300 0
-317 -29 -47 -299 0
-318 -28 -48 -298 0
-316 -31 -46 -301 0
-317 -32 -47 -302 0
-318 -33 -48 -303 0
-316 -34 -46 -304 0
-317 -35 -47 -305 0
-318 -36 -48 -306 0
-316 -37 -46 -307 0
-317 -38 -47 -308 0
-318 -39 -48 -309 0
-316 -40 -46 -310 0
-317 -41 -47 -311 0
-318 -42 -48 -312 0
-316 -43 -46 -313 0
-317 -44 -47 -314 0
-318 -45 -48 -315 0
-316 -57 -73 -300 0
-317 -56 -74 -299 0
-318 -55 -75 -298 0
-316 -58 -73 -301 0
-317 -59 -74 -302 0
-318 -60 -75 -303 0
-316 -61 -73 -304 0
-317 -62 -74 -305 0
-318 -63 -75 -306 0
-316 -64 -73 -307 0
-317 -65 -74 -308 0
-318 -66 -75 -309 0
-316 -67 -73 -310 0
-317 -68 -74 -311 0
-318 -69 -75 -312 0
-316 -70 -73 -313 0
-317 -71 -74 -314 0
-318 -72 -75 -315 0
-316 -84 -100 -300 0
-317 -83 -101 -299 0
-318 -82 -102 -298 0
-316 -85 -100 -301 0
-317 -86 -101 -302 0
-318 -87 -102 -303 0
-316 -88 -100 -304 0
-317 -89 -101 -305 0
-318 -90 -102 -306 0
-316 -91 -100 -307 0
-317 -92 -101 -308 0
-318 -93 -102 -309 0
-316 -94 -100 -310 0
-317 -95 -101 -311 0
-318 -96 -102 -312 0
-316 -97 -100 -313 0
-317 -98 -101 -314 0
-318 -99 -102 -315 0
-316 -111 -127 -300 0
-317 -110 -128 -299 0
-318 -109 -129 -298 0
-316 -112 -127 -301 0
-317 -113 -128 -302 0
-318 -114 -129 -303 0
-316 -115 -127 -304 0
-317 -116 -128 -305 0
-318 -117 -129 -306 0
-316 -118 -127 -307 0
-317 -119 -128 -308 0
-318 -120 -129 -309 0
-316 -121 -127 -310 0
-317 -122 -128 -311 0
-318 -123 -129 -312 0
-316 -124 -127 -313 0
-317 -125 -128 -314 0
-318 -126 -129 -315 0
-316 -138 -154 -300 0
-317 -137 -155 -299 0
-318 -136 -156 -298 0
-316 -139 -154 -301 0
-317 -140 -155 -302 0
-318 -141 -156 -303 0
-316 -142 -154 -304 0
-317 -143 -155 -305 0
-318 -144 -156 -306 0
-316 -145 -154 -307 0
-317 -146 -155 -308 0
-318 -147 -156 -309 0
-316 -148 -154 -310 0
-317 -149 -155 -311 0
-318 -150 -156 -312 0
-316 -151 -154 -313 0
-317 -152 -155 -314 0
-318 -153 -156 -315 0
-316 -165 -181 -300 0
-317 -164 -182 -299 0
-318 -163 -183 -298 0
-316 -166 -181 -301 0
-317 -167 -182 -302 0
-318 -168 -183 -303 0
-316 -169 -181 -304 0
-317 -170 -182 -305 0
-318 -171 -183 -306 0
-316 -172 -181 -307 0
-317 -173 -182 -308 0
-318 -174 -183 -309 0
-316 -175 -181 -310 0
-317 -176 -182 -311 0
-318 -177 -183 -312 0
-316 -178 -181 -313 0
-317 -179 -182 -314 0
-318 -180 -183 -315 0
-316 -192 -208 -300 0
-317 -191 -209 -299 0
-318 -190 -210 -298 0
-316 -193 -208 -301 0
-317 -194 -209 -302 0
-318 -195 -210 -303 0
-316 -196 -208 -304 0
-317 -197 -209 -305 0
-318 -198 -210 -306 0
-316 -199 -208 -307 0
-317 -200 -209 -308 0
-318 -201 -210 -309 0
-316 -202 -208 -310 0
-317 -203 -209 -311 0
-318 -204 -210 -312 0
-316 -205 -208 -313 0
-317 -206 -209 -314 0
-318 -207 -210 -315 0
-316 -219 -235 -300 0
-317 -218 -236 -299 0
-318 -217 -237 -298 0
-316 -220 -235 -301 0
-317 -221 -236 -302 0
-318 -222 -237 -303 0
-316 -223 -235 -304 0
-317 -224 -236 -305 0
-318 -225 -237 -306 0
-316 -226 -235 -307 0
-317 -227 -236 -308 0
-318 -228 -237 -309 0
-316 -229 -235 -310 0
-317 -230 -236 -311 0
-318 -231 -237 -312 0
-316 -232 -235 -313 0
-317 -233 -236 -314 0
-318 -234 -237 -315 0
-316 -246 -262 -300 0
-317 -245 -263 -299 0
-318 -244 -264 -298 0
-316 -247 -262 -301 0
-317 -248 -263 -302 0
-318 -249 -264 -303 0
-316 -250 -262 -304 0
-317 -251 -263 -305 0
-318 -252 -264 -306 0
-316 -253 -262 -307 0
-317 -254 -263 -308 0
-318 -255 -264 -309 0
-316 -256 -262 -310 0
-317 -257 -263 -311 0
-318 -258 -264 -312 0
-316 -259 -262 -313 0
-317 -260 -263 -314 0
-318 -261 -264 -315 0
-316 -273 -289 -300 0
-317 -272 -290 -299 0
-318 -271 -291 -298 0
-316 -274 -289 -301 0
-317 -275 -290 -302 0
-318 -276 -291 -303 0
-316 -277 -289 -304 0
-317 -278 -290 -305 0
-318 -279 -291 -306 0
-316 -280 -289 -307 0
-317 -281 -290 -308 0
-318 -282 -291 -309 0
-316 -283 -289 -310 0
-317 -284 -290 -311 0
-318 -285 -291 -312 0
-316 -286 -289 -313 0
-317 -287 -290 -314 0
-318 -288 -291 -315 0
-318 -317 0
-317 -316 0
-318 -316 0
316 317 318 0
-319 -3 -24 -300 0
-320 -2 -23 -299 0
-321 -1 -22 -298 0
-319 -6 -24 -301 0
-320 -5 -23 -302 0
-321 -4 -22 -303 0
-319 -9 -24 -304 0
-320 -8 -23 -305 0
-321 -7 -22 -306 0
-319 -12 -24 -307 0
-320 -11 -23 -308 0
-321 -10 -22 -309 0
-319 -15 -24 -310 0
-320 -14 -23 -311 0
-321 -13 -22 -312 0
-319 -18 -24 -313 0
-320 -17 -23 -314 0
-321 -16 -22 -315 0
-319 -21 -24 -316 0
-320 -20 -23 -317 0
-321 -19 -22 -318 0
-319 -30 -49 -300 0
-320 -29 -50 -299 0
-321 -28 -51 -298 0
-319 -31 -49 -301 0
-320 -32 -50 -302 0
-321 -33 -51 -303 0
-319 -34 -49 -304 0
-320 -35 -50 -305 0
-321 -36 -51 -306 0
-319 -37 -49 -307 0
-320 -38 -50 -308 0
-321 -39 -51 -309 0
-319 -40 -49 -310 0
-320 -41 -50 -311 0
-321 -42 -51 -312 0
-319 -43 -49 -313 0
-320 -44 -50 -314 0
-321 -45 -51 -315 0
-319 -46 -49 -316 0
-320 -47 -50 -317 0
-321 -48 -51 -318 0
-319 -57 -76 -300 0
-320 -56 -77 -299 0
-321 -55 -78 -298 0
-319 -58 -76 -301 0
-320 -59 -77 -302 0
-321 -60 -78 -303 0
-319 -61 -76 -304 0
-320 -62 -77 -305 0
-321 -63 -78 -306 0
-319 -64 -76 -307 0
-320 -65 -77 -308 0
-321 -66 -78 -309 0
-319 -67 -76 -310 0
-320 -68 -77 -311 0
-321 -69 -78 -312 0
-319 -70 -76 -313 0
-320 -71 -77 -314 0
-321 -72 -78 -315 0
-319 -73 -76 -316 0
-320 -74 -77 -317 0
-321 -75 -78 -318 0
-319 -84 -103 -300 0
-320 -83 -104 -299 0
-321 -82 -105 -298 0
-319 -85 -103 -301 0
-320 -86 -104 -302 0
-321 -87 -105 -303 0
-319 -88 -103 -304 0
-320 -89 -104 -305 0
-321 -90 -105 -306 0
-319 -91 -103 -307 0
-320 -92 -104 -308 0
-321 -93 -105 -309 0
-319 -94 -103 -310 0
-320 -95 -104 -311 0
-321 -96 -105 -312 0
-319 -97 -103 -313 0
-320 -98 -104 -314 0
-321 -99 -105 -315 0
-319 -100 -103 -316 0
-320 -101 -104 -317 0
-321 -102 -105 -318 0
-319 -111 -130 -300 0
-320 -110 -131 -299 0
-321 -109 -132 -298 0
-319 -112 -130 -301 0
-320 -113 -131 -302 0
-321 -114 -132 -303 0
-319 -115 -130 -304 0
-320 -116 -131 -305 0
-321 -117 -132 -306 0
-319 -118 -130 -307 0
-320 -119 -131 -308 0
-321 -120 -132 -309 0
-319 -121 -130 -310 0
-320 -122 -131 -311 0
-321 -123 -132 -312 0
-319 -124 -130 -313 0
-320 -125 -131 -314 0
-321 -126 -132 -315 0
-319 -127 -130 -316 0
-320 -128 -131 -317 0
-321 -129 -132 -318 0
-319 -138 -157 -300 0
-320 -137 -158 -299 0
-321 -136 -159 -298 0
-319 -139 -157 -301 0
-320 -140 -158 -302 0
-321 -141 -159 -303 0
-319 -142 -157 -304 0
-320 -143 -158 -305 0
-321 -144 -159 -306 0
-319 -145 -157 -307 0
-320 -146 -158 -308 0
-321 -147 -159 -309 0
-319 -148 -157 -310 0
-320 -149 -158 -311 0
-321 -150 -159 -312 0
-319 -151 -157 -313 0
-320 -152 -158 -314 0
-321 -153 -159 -315 0
-319 -154 -157 -316 0
-320 -155 -158 -317 0
-321 -156 -159 -318 0
-319 -165 -184 -300 0
-320 -164 -185 -299 0
-321 -163 -186 -298 0
-319 -166 -184 -301 0
-320 -167 -185 -302 0
-321 -168 -186 -303 0
-319 -169 -184 -304 0
-320 -170 -185 -305 0
-321 -171 -186 -306 0
-319 -172 -184 -307 0
-320 -173 -185 -308 0
-321 -174 -186 -309 0
-319 -175 -184 -310 0
-320 -176 -185 -311 0
-321 -177 -186 -312 0
-319 -178 -184 -313 0
-320 -179 -185 -314 0
-321 -180 -186 -315 0
-319 -181 -184 -316 0
-320 -182 -185 -317 0
-321 -183 -186 -318 0
-319 -192 -211 -300 0
-320 -191 -212 -299 0
-321 -190 -213 -298 0
-319 -193 -211 -301 0
-320 -194 -212 -302 0
-321 -195 -213 -303 0
-319 -196 -211 -304 0
-320 -197 -212 -305 0
-321 -198 -213 -306 0
-319 -199 -211 -307 0
-320 -200 -212 -308 0
-321 -201 -213 -309 0
-319 -202 -211 -310 0
-320 -203 -212 -311 0
-321 -204 -213 -312 0
-319 -205 -211 -313 0
-320 -206 -212 -314 0
-321 -207 -213 -315 0
-319 -208 -211 -316 0
-320 -209 -212 -317 0
-321 -210 -213 -318 0
-319 -219 -238 -300 0
-320 -218 -239 -299 0
-321 -217 -240 -298 0
-319 -220 -238 -301 0
-320 -221 -239 -302 0
-321 -222 -240 -303 0
-319 -223 -238 -304 0
-320 -224 -239 -305 0
-321 -225 -240 -306 0
-319 -226 -238 -307 0
-320 -227 -239 -308 0
-321 -228 -240 -309 0
-319 -229 -238 -310 0
-320 -230 -239 -311 0
-321 -231 -240 -312 0
-319 -232 -238 -313 0
-320 -233 -239 -314 0
-321 -234 -240 -315 0
-319 -235 -238 -316 0
-320 -236 -239 -317 0
-321 -237 -240 -318 0
-319 -246 -265 -300 0
-320 -245 -266 -299 0
-321 -244 -267 -298 0
-319 -247 -265 -301 0
-320 -248 -266 -302 0
-321 -249 -267 -303 0
-319 -250 -265 -304 0
-320 -251 -266 -305 0
-321 -252 -267 -306 0
-319 -253 -265 -307 0
-320 -254 -266 -308 0
-321 -255 -267 -309 0
-319 -256 -265 -310 0
-320 -257 -266 -311 0
-321 -258 -267 -312 0
-319 -259 -265 -313 0
-320 -260 -266 -314 0
-321 -261 -267 -315 0
-319 -262 -265 -316 0
-320 -263 -266 -317 0
-321 -264 -267 -318 0
-319 -273 -292 -300 0
-320 -272 -293 -299 0
-321 -271 -294 -298 0
-319 -274 -292 -301 0
-320 -275 -293 -302 0
-321 -276 -294 -303 0
-319 -277 -292 -304 0
-320 -278 -293 -305 0
-321 -279 -294 -306 0
-319 -280 -292 -307 0
-320 -281 -293 -308 0
-321 -282 -294 -309 0
-319 -283 -292 -310 0
-320 -284 -293 -311 0
-321 -285 -294 -312 0
-319 -286 -292 -313 0
-320 -287 -293 -314 0
-321 -288 -294 -315 0
-319 -289 -292 -316 0
-320 -290 -293 -317 0
-321 -291 -294 -318 0
-321 -320 0
-320 -319 0
-321 -319 0
319 320 321 0
-322 -3 -27 -300 0
-323 -2 -26 -299 0
-324 -1 -25 -298 0
-322 -6 -27 -301 0
-323 -5 -26 -302 0
-324 -4 -25 -303 0
-322 -9 -27 -304 0
-323 -8 -26 -305 0
-324 -7 -25 -306 0
-322 -12 -27 -307 0
-323 -11 -26 -308 0
-324 -10 -25 -309 0
-322 -15 -27 -310 0
-323 -14 -26 -311 0
-324 -13 -25 -312 0
-322 -18 -27 -313 0
-323 -17 -26 -314 0
-324 -16 -25 -315 0
-322 -21 -27 -316 0
-323 -20 -26 -317 0
-324 -19 -25 -318 0
-322 -24 -27 -319 0
-323 -23 -26 -320 0
-324 -22 -25 -321 0
-322 -30 -52 -300 0
-323 -29 -53 -299 0
-324 -28 -54 -298 0
-322 -31 -52 -301 0
-323 -32 -53 -302 0
-324 -33 -54 -303 0
-322 -34 -52 -304 0
-323 -35 -53 -305 0
-324 -36 -54 -306 0
-322 -37 -52 -307 0
-323 -38 -53 -308 0
-324 -39 -54 -309 0
-322 -40 -52 -310 0
-323 -41 -53 -311 0
-324 -42 -54 -312 0
-322 -43 -52 -313 0
-323 -44 -53 -314 0
-324 -45 -54 -315 0
-322 -46 -52 -316 0
-323 -47 -53 -317 0
-324 -48 -54 -318 0
-322 -49 -52 -319 0
-323 -50 -53 -320 0
-324 -51 -54 -321 0
-322 -57 -79 -300 0
-323 -56 -80 -299 0
-324 -55 -81 -298 0
-322 -58 -79 -301 0
-323 -59 -80 -302 0
-324 -60 -81 -303 0
-322 -61 -79 -304 0
-323 -62 -80 -305 0
-324 -63 -81 -306 0
-322 -64 -79 -307 0
-323 -65 -80 -308 0
-324 -66 -81 -309 0
-322 -67 -79 -310 0
-323 -68 -80 -311 0
-324 -69 -81 -312 0
-322 -70 -79 -313 0
-323 -71 -80 -314 0
-324 -72 -81 -315 0
-322 -73 -79 -316 0
-323 -74 -80 -317 0
-324 -75 -81 -318 0
-322 -76 -79 -319 0
-323 -77 -80 -320 0
-324 -78 -81 -321 0
-322 -84 -106 -300 0
-323 -83 -107 -299 0
-324 -82 -108 -298 0
-322 -85 -106 -301 0
-323 -86 -107 -302 0
-324 -87 -108 -303 0
-322 -88 -106 -304 0
-323 -89 -107 -305 0
-324 -90 -108 -306 0
-322 -91 -106 -307 0
-323 -92 -107 -308 0
-324 -93 -108 -309 0
-322 -94 -106 -310 0
-323 -95 -107 -311 0
-324 -96 -108 -312 0
-322 -97 -106 -313 0
-323 -98 -107 -314 0
-324 -99 -108 -315 0
-322 -100 -106 -316 0
-323 -101 -107 -317 0
-324 -102 -108 -318 0
-322 -103 -106 -319 0
-323 -104 -107 -320 0
-324 -105 -108 -321 0
-322 -111 -133 -300 0
-323 -110 -134 -299 0
-324 -109 -135 -298 0
-322 -112 -133 -301 0
-323 -113 -134 -302 0
-324 -114 -135 -303 0
-322 -115 -133 -304 0
-323 -116 -134 -305 0
-324 -117 -135 -306 0
-322 -118 -133 -307 0
-323 -119 -134 -308 0
-324 -120 -135 -309 0
-322 -121 -133 -310 0
-323 -122 -134 -311 0
-324 -123 -135 -312 0
-322 -124 -133 -313 0
-323 -125 -134 -314 0
-324 -126 -135 -315 0
-322 -127 -133 -316 0
-323 -128 -134 -317 0
-324 -129 -135 -318 0
-322 -130 -133 -319 0
-323 -131 -134 -320 0
-324 -132 -135 -321 0
-322 -138 -160 -300 0
-323 -137 -161 -299 0
-324 -136 -162 -298 0
-322 -139 -160 -301 0
-323 -140 -161 -302 0
-324 -141 -162 -303 0
-322 -142 -160 -304 0
-323 -143 -161 -305 0
-324 -144 -162 -306 0
-322 -145 -160 -307 0
-323 -146 -161 -308 0
-324 -147 -162 -309 0
-322 -148 -160 -310 0
-323 -149 -161 -311 0
-324 -150 -162 -312 0
-322 -151 -160 -313 0
-323 -152 -161 -314 0
-324 -153 -162 -315 0
-322 -154 -160 -316 0
-323 -155 -161 -317 0
-324 -156 -162 -318 0
-322 -157 -160 -319 0
-323 -158 -161 -320 0
-324 -159 -162 -321 0
-322 -165 -187 -300 0
-323 -164 -188 -299 0
-324 -163 -189 -298 0
-322 -166 -187 -301 0
-323 -167 -188 -302 0
-324 -168 -189 -303 0
-322 -169 -187 -304 0
-323 -170 -188 -305 0
-324 -171 -189 -306 0
-322 -172 -187 -307 0
-323 -173 -188 -308 0
-324 -174 -189 -309 0
-322 -175 -187 -310 0
-323 -176 -188 -311 0
-324 -177 -189 -312 0
-322 -178 -187 -313 0
-323 -179 -188 -314 0
-324 -180 -189 -315 0
-322 -181 -187 -316 0
-323 -182 -188 -317 0
-324 -183 -189 -318 0
-322 -184 -187 -319 0
-323 -185 -188 -320 0
-324 -186 -189 -321 0
-322 -192 -214 -300 0
-323 -191 -215 -299 0
-324 -190 -216 -298 0
-322 -193 -214 -301 0
-323 -194 -215 -302 0
-324 -195 -216 -303 0
-322 -196 -214 -304 0
-323 -197 -215 -305 0
-324 -198 -216 -306 0
-322 -199 -214 -307 0
-323 -200 -215 -308 0
-324 -201 -216 -309 0
-322 -202 -214 -310 0
-323 -203 -215 -311 0
-324 -204 -216 -312 0
-322 -205 -214 -313 0
-323 -206 -215 -314 0
-324 -207 -216 -315 0
-322 -208 -214 -316 0
-323 -209 -215 -317 0
-324 -210 -216 -318 0
-322 -211 -214 -319 0
-323 -212 -215 -320 0
-324 -213 -216 -321 0
-322 -219 -241 -300 0
-323 -218 -242 -299 0
-324 -217 -243 -298 0
-322 -220 -241 -301 0
-323 -221 -242 -302 0
-324 -222 -243 -303 0
-322 -223 -241 -304 0
-323 -224 -242 -305 0
-324 -225 -243 -306 0
-322 -226 -241 -307 0
-323 -227 -242 -308 0
-324 -228 -243 -309 0
-322 -229 -241 -310 0
-323 -230 -242 -311 0
-324 -231 -243 -312 0
-322 -232 -241 -313 0
-323 -233 -242 -314 0
-324 -234 -243 -315 0
-322 -235 -241 -316 0
-323 -236 -242 -317 0
-324 -237 -243 -318 0
-322 -238 -241 -319 0
-323 -239 -242 -320 0
-324 -240 -243 -321 0
-322 -246 -268 -300 0
-323 -245 -269 -299 0
-324 -244 -270 -298 0
-322 -247 -268 -301 0
-323 -248 -269 -302 0
-324 -249 -270 -303 0
-322 -250 -268 -304 0
-323 -251 -269 -305 0
-324 -252 -270 -306 0
-322 -253 -268 -307 0
-323 -254 -269 -308 0
-324 -255 -270 -309 0
-322 -256 -268 -310 0
-323 -257 -269 -311 0
-324 -258 -270 -312 0
-322 -259 -268 -313 0
-323 -260 -269 -314 0
-324 -261 -270 -315 0
-322 -262 -268 -316 0
-323 -263 -269 -317 0
-324 -264 -270 -318 0
-322 -265 -268 -319 0
-323 -266 -269 -320 0
-324 -267 -270 -321 0
-322 -273 -295 -300 0
-323 -272 -296 -299 0
-324 -271 -297 -298 0
-322 -274 -295 -301 0
-323 -275 -296 -302 0
-324 -276 -297 -303 0
-322 -277 -295 -304 0
-323 -278 -296 -305 0
-324 -279 -297 -306 0
-322 -280 -295 -307 0
-323 -281 -296 -308 0
-324 -282 -297 -309 0
-322 -283 -295 -310 0
-323 -284 -296 -311 0
-324 -285 -297 -312 0
-322 -286 -295 -313 0
-323 -287 -296 -314 0
-324 -288 -297 -315 0
-322 -289 -295 -316 0
-323 -290 -296 -317 0
-324 -291 -297 -318 0
-322 -292 -295 -319 0
-323 -293 -296 -320 0
-324 -294 -297 -321 0
-324 -323 0
-323 -322 0
-324 -322 0
322 323 324 0